# vtk DataFile Version 2.0
cook_membrance_quad_10
ASCII
DATASET POLYDATA
POINTS 66 float
0.000000 0.000000 0.000000
48.000000 44.000000 0.000000
48.000000 60.000000 0.000000
0.000000 44.000000 0.000000
5.920209 5.426858 0.000000
11.558504 10.595295 0.000000
16.928308 15.517615 0.000000
22.042407 20.205540 0.000000
26.912978 24.670230 0.000000
31.551617 28.922315 0.000000
35.969368 32.971920 0.000000
40.176750 36.828687 0.000000
44.183780 40.501799 0.000000
48.000000 47.200000 0.000000
48.000000 50.400000 0.000000
48.000000 53.600000 0.000000
48.000000 56.800000 0.000000
44.183780 58.727927 0.000000
40.176750 57.392250 0.000000
35.969368 55.989789 0.000000
31.551617 54.517206 0.000000
26.912978 52.970993 0.000000
22.042407 51.347469 0.000000
16.928308 49.642769 0.000000
11.558504 47.852835 0.000000
5.920209 45.973403 0.000000
0.000000 35.200000 0.000000
0.000000 26.400000 0.000000
0.000000 17.600000 0.000000
0.000000 8.800000 0.000000
5.775544 13.424437 0.000000
5.736970 21.520543 0.000000
5.731466 29.645074 0.000000
5.763399 37.787112 0.000000
11.376078 17.907821 0.000000
11.313680 25.332095 0.000000
11.304749 32.801184 0.000000
11.357121 40.299829 0.000000
16.740237 22.200243 0.000000
16.670738 28.993257 0.000000
16.660426 35.835117 0.000000
16.718694 42.710822 0.000000
21.858735 26.295201 0.000000
21.789072 32.490948 0.000000
21.778505 38.735154 0.000000
21.836801 45.013687 0.000000
26.736632 30.197316 0.000000
26.669155 35.825676 0.000000
26.658814 41.500774 0.000000
26.715220 47.209273 0.000000
31.383234 33.914277 0.000000
31.318616 39.002752 0.000000
31.308671 44.135915 0.000000
31.362662 49.301115 0.000000
35.808874 37.454442 0.000000
35.747223 42.028896 0.000000
35.737721 46.645961 0.000000
35.789222 51.293608 0.000000
40.026461 40.827977 0.000000
39.969720 44.914175 0.000000
39.961265 49.039816 0.000000
40.008983 53.193498 0.000000
44.065131 44.056992 0.000000
44.025766 47.685481 0.000000
44.020537 51.341705 0.000000
44.054359 55.017253 0.000000
POLYGONS 50 250
4 0 4 30 29
4 29 30 31 28
4 28 31 32 27
4 27 32 33 26
4 26 33 25 3
4 4 5 34 30
4 30 34 35 31
4 31 35 36 32
4 32 36 37 33
4 33 37 24 25
4 5 6 38 34
4 34 38 39 35
4 35 39 40 36
4 36 40 41 37
4 37 41 23 24
4 6 7 42 38
4 38 42 43 39
4 39 43 44 40
4 40 44 45 41
4 41 45 22 23
4 7 8 46 42
4 42 46 47 43
4 43 47 48 44
4 44 48 49 45
4 45 49 21 22
4 8 9 50 46
4 46 50 51 47
4 47 51 52 48
4 48 52 53 49
4 49 53 20 21
4 9 10 54 50
4 50 54 55 51
4 51 55 56 52
4 52 56 57 53
4 53 57 19 20
4 10 11 58 54
4 54 58 59 55
4 55 59 60 56
4 56 60 61 57
4 57 61 18 19
4 11 12 62 58
4 58 62 63 59
4 59 63 64 60
4 60 64 65 61
4 61 65 17 18
4 12 1 13 62
4 62 13 14 63
4 63 14 15 64
4 64 15 16 65
4 65 16 2 17
POINT_DATA 66
VECTORS U float
0.003227 0.075695 0.000000
0.007607 0.062431 0.000000
0.011749 0.037487 0.000000
0.003746 0.009727 0.000000
-0.018420 0.022314 0.000000
0.027613 0.419547 0.000000
0.060534 0.349370 0.000000
0.071959 0.225287 0.000000
0.016592 0.108057 0.000000
-0.154589 0.186400 0.000000
0.100369 0.716946 0.000000
0.171608 0.620934 0.000000
0.136148 0.487271 0.000000
-0.028752 0.438625 0.000000
-0.490544 0.577695 0.000000
0.219409 1.068092 0.000000
0.246621 0.986522 0.000000
0.115744 0.913040 0.000000
-0.247564 0.924519 0.000000
-0.898430 1.027040 0.000000
0.293746 1.557097 0.000000
0.224222 1.507759 0.000000
-0.062951 1.480911 0.000000
-0.576731 1.498071 0.000000
-1.350078 1.588682 0.000000
0.269528 2.209175 0.000000
0.050340 2.173556 0.000000
-0.367190 2.159051 0.000000
-0.996116 2.181339 0.000000
-1.849388 2.245502 0.000000
0.091216 2.995448 0.000000
-0.257282 2.956758 0.000000
-0.786711 2.945217 0.000000
-1.491925 2.958975 0.000000
-2.386552 3.002791 0.000000
-0.236102 3.880626 0.000000
-0.698446 3.835121 0.000000
-1.305978 3.820785 0.000000
-2.051289 3.829923 0.000000
-2.952883 3.846422 0.000000
-0.718702 4.838221 0.000000
-1.264771 4.787479 0.000000
-1.913531 4.780240 0.000000
-2.656839 4.782381 0.000000
-3.537344 4.768558 0.000000
-1.351882 5.832204 0.000000
-1.948529 5.800542 0.000000
-2.593304 5.811360 0.000000
-3.310472 5.816473 0.000000
-4.151324 5.786272 0.000000
CELL_DATA 50
TENSORS STRESS float
16.107933 4.965523 0.000000
4.965523 15.293907 0.000000
0.000000 0.000000 0.000000

26.040811 4.237363 0.000000
4.237363 23.981000 0.000000
0.000000 0.000000 0.000000

-33.352083 2.107027 0.000000
2.107027 -36.290724 0.000000
0.000000 0.000000 0.000000

-9.725563 0.505136 0.000000
0.505136 -10.638089 0.000000
0.000000 0.000000 0.000000

230.026982 0.279712 0.000000
0.279712 238.634569 0.000000
0.000000 0.000000 0.000000

173.037718 5.164848 0.000000
5.164848 170.557160 0.000000
0.000000 0.000000 0.000000

156.383264 4.624497 0.000000
4.624497 150.980325 0.000000
0.000000 0.000000 0.000000

-11.099997 3.708371 0.000000
3.708371 -16.624902 0.000000
0.000000 0.000000 0.000000

-371.514827 2.999455 0.000000
2.999455 -369.759769 0.000000
0.000000 0.000000 0.000000

-482.594783 -3.024675 0.000000
-3.024675 -468.841517 0.000000
0.000000 0.000000 0.000000

402.887078 6.526767 0.000000
6.526767 399.477828 0.000000
0.000000 0.000000 0.000000

43.912211 5.921056 0.000000
5.921056 38.246434 0.000000
0.000000 0.000000 0.000000

-677.517120 4.886787 0.000000
4.886787 -679.914940 0.000000
0.000000 0.000000 0.000000

-1763.848924 1.332505 0.000000
1.332505 -1758.874601 0.000000
0.000000 0.000000 0.000000

-2646.173806 -3.681632 0.000000
-3.681632 -2635.846655 0.000000
0.000000 0.000000 0.000000

324.947688 8.314865 0.000000
8.314865 322.168319 0.000000
0.000000 0.000000 0.000000

-736.633806 6.936130 0.000000
6.936130 -739.493825 0.000000
0.000000 0.000000 0.000000

-2245.033755 4.247482 0.000000
4.247482 -2244.287834 0.000000
0.000000 0.000000 0.000000

-3742.437278 0.616051 0.000000
0.616051 -3737.488358 0.000000
0.000000 0.000000 0.000000

-4780.958039 -3.859125 0.000000
-3.859125 -4770.857093 0.000000
0.000000 0.000000 0.000000

-537.180165 9.632191 0.000000
9.632191 -538.279399 0.000000
0.000000 0.000000 0.000000

-2482.632472 6.986860 0.000000
6.986860 -2482.800226 0.000000
0.000000 0.000000 0.000000

-4426.177617 4.043180 0.000000
4.043180 -4423.942050 0.000000
0.000000 0.000000 0.000000

-6257.039339 0.461325 0.000000
0.461325 -6251.346649 0.000000
0.000000 0.000000 0.000000

-7787.120950 -3.693759 0.000000
-3.693759 -7777.937836 0.000000
0.000000 0.000000 0.000000

-2671.763905 10.004213 0.000000
10.004213 -2671.434842 0.000000
0.000000 0.000000 0.000000

-5011.791159 7.123692 0.000000
7.123692 -5010.307489 0.000000
0.000000 0.000000 0.000000

-7286.494303 3.997198 0.000000
3.997198 -7282.782600 0.000000
0.000000 0.000000 0.000000

-9407.939910 0.677551 0.000000
0.677551 -9401.874419 0.000000
0.000000 0.000000 0.000000

-11361.820486 -3.213477 0.000000
-3.213477 -11353.193205 0.000000
0.000000 0.000000 0.000000

-5769.068774 9.990566 0.000000
9.990566 -5767.691566 0.000000
0.000000 0.000000 0.000000

-8368.711769 7.002526 0.000000
7.002526 -8365.778662 0.000000
0.000000 0.000000 0.000000

-10741.404300 4.163189 0.000000
4.163189 -10736.482467 0.000000
0.000000 0.000000 0.000000

-13074.713486 1.231914 0.000000
1.231914 -13068.098146 0.000000
0.000000 0.000000 0.000000

-15566.426815 -2.487387 0.000000
-2.487387 -15558.889891 0.000000
0.000000 0.000000 0.000000

-9918.720145 9.545558 0.000000
9.545558 -9916.352963 0.000000
0.000000 0.000000 0.000000

-12328.263856 6.818394 0.000000
6.818394 -12323.691190 0.000000
0.000000 0.000000 0.000000

-14534.716257 4.619629 0.000000
4.619629 -14528.242666 0.000000
0.000000 0.000000 0.000000

-17150.738144 2.096688 0.000000
2.096688 -17144.197376 0.000000
0.000000 0.000000 0.000000

-20216.534004 -1.617229 0.000000
-1.617229 -20210.417337 0.000000
0.000000 0.000000 0.000000

-14704.017825 8.614790 0.000000
8.614790 -14700.207932 0.000000
0.000000 0.000000 0.000000

-16265.602486 6.719142 0.000000
6.719142 -16258.559571 0.000000
0.000000 0.000000 0.000000

-18228.433940 5.381302 0.000000
5.381302 -18220.546170 0.000000
0.000000 0.000000 0.000000

-21512.856521 3.260249 0.000000
3.260249 -21506.570284 0.000000
0.000000 0.000000 0.000000

-25878.261613 -0.608015 0.000000
-0.608015 -25873.981188 0.000000
0.000000 0.000000 0.000000

-18649.847475 7.004478 0.000000
7.004478 -18643.641352 0.000000
0.000000 0.000000 0.000000

-18951.411784 6.125508 0.000000
6.125508 -18941.400798 0.000000
0.000000 0.000000 0.000000

-21421.075094 5.428438 0.000000
5.428438 -21410.432808 0.000000
0.000000 0.000000 0.000000

-26247.311552 4.414190 0.000000
4.414190 -26238.009392 0.000000
0.000000 0.000000 0.000000

-34222.000835 1.940978 0.000000
1.940978 -34216.991185 0.000000
0.000000 0.000000 0.000000

