# vtk DataFile Version 2.0
cook_membrance_rkgsi_mix
ASCII
DATASET POLYDATA
POINTS 961 float
0.000000 0.000000 0.000000
48.000000 44.000000 0.000000
48.000000 60.000000 0.000000
0.000000 44.000000 0.000000
1.600000 1.466667 0.000000
3.200000 2.933333 0.000000
4.800000 4.400000 0.000000
6.400000 5.866667 0.000000
8.000000 7.333333 0.000000
9.600000 8.800000 0.000000
11.200000 10.266667 0.000000
12.800000 11.733333 0.000000
14.400000 13.200000 0.000000
16.000000 14.666667 0.000000
17.600000 16.133333 0.000000
19.200000 17.600000 0.000000
20.800000 19.066667 0.000000
22.400000 20.533333 0.000000
24.000000 22.000000 0.000000
25.600000 23.466667 0.000000
27.200000 24.933333 0.000000
28.800000 26.400000 0.000000
30.400000 27.866667 0.000000
32.000000 29.333333 0.000000
33.600000 30.800000 0.000000
35.200000 32.266667 0.000000
36.800000 33.733333 0.000000
38.400000 35.200000 0.000000
40.000000 36.666667 0.000000
41.600000 38.133333 0.000000
43.200000 39.600000 0.000000
44.800000 41.066667 0.000000
46.400000 42.533333 0.000000
48.000000 44.533333 0.000000
48.000000 45.066667 0.000000
48.000000 45.600000 0.000000
48.000000 46.133333 0.000000
48.000000 46.666667 0.000000
48.000000 47.200000 0.000000
48.000000 47.733333 0.000000
48.000000 48.266667 0.000000
48.000000 48.800000 0.000000
48.000000 49.333333 0.000000
48.000000 49.866667 0.000000
48.000000 50.400000 0.000000
48.000000 50.933333 0.000000
48.000000 51.466667 0.000000
48.000000 52.000000 0.000000
48.000000 52.533333 0.000000
48.000000 53.066667 0.000000
48.000000 53.600000 0.000000
48.000000 54.133333 0.000000
48.000000 54.666667 0.000000
48.000000 55.200000 0.000000
48.000000 55.733333 0.000000
48.000000 56.266667 0.000000
48.000000 56.800000 0.000000
48.000000 57.333333 0.000000
48.000000 57.866667 0.000000
48.000000 58.400000 0.000000
48.000000 58.933333 0.000000
48.000000 59.466667 0.000000
46.400000 59.466667 0.000000
44.800000 58.933333 0.000000
43.200000 58.400000 0.000000
41.600000 57.866667 0.000000
40.000000 57.333333 0.000000
38.400000 56.800000 0.000000
36.800000 56.266667 0.000000
35.200000 55.733333 0.000000
33.600000 55.200000 0.000000
32.000000 54.666667 0.000000
30.400000 54.133333 0.000000
28.800000 53.600000 0.000000
27.200000 53.066667 0.000000
25.600000 52.533333 0.000000
24.000000 52.000000 0.000000
22.400000 51.466667 0.000000
20.800000 50.933333 0.000000
19.200000 50.400000 0.000000
17.600000 49.866667 0.000000
16.000000 49.333333 0.000000
14.400000 48.800000 0.000000
12.800000 48.266667 0.000000
11.200000 47.733333 0.000000
9.600000 47.200000 0.000000
8.000000 46.666667 0.000000
6.400000 46.133333 0.000000
4.800000 45.600000 0.000000
3.200000 45.066667 0.000000
1.600000 44.533333 0.000000
0.000000 42.533333 0.000000
0.000000 41.066667 0.000000
0.000000 39.600000 0.000000
0.000000 38.133333 0.000000
0.000000 36.666667 0.000000
0.000000 35.200000 0.000000
0.000000 33.733333 0.000000
0.000000 32.266667 0.000000
0.000000 30.800000 0.000000
0.000000 29.333333 0.000000
0.000000 27.866667 0.000000
0.000000 26.400000 0.000000
0.000000 24.933333 0.000000
0.000000 23.466667 0.000000
0.000000 22.000000 0.000000
0.000000 20.533333 0.000000
0.000000 19.066667 0.000000
0.000000 17.600000 0.000000
0.000000 16.133333 0.000000
0.000000 14.666667 0.000000
0.000000 13.200000 0.000000
0.000000 11.733333 0.000000
0.000000 10.266667 0.000000
0.000000 8.800000 0.000000
0.000000 7.333333 0.000000
0.000000 5.866667 0.000000
0.000000 4.400000 0.000000
0.000000 2.933333 0.000000
0.000000 1.466667 0.000000
1.600000 2.902222 0.000000
1.600000 4.337778 0.000000
1.600000 5.773333 0.000000
1.600000 7.208889 0.000000
1.600000 8.644444 0.000000
1.600000 10.080000 0.000000
1.600000 11.515556 0.000000
1.600000 12.951111 0.000000
1.600000 14.386667 0.000000
1.600000 15.822222 0.000000
1.600000 17.257778 0.000000
1.600000 18.693333 0.000000
1.600000 20.128889 0.000000
1.600000 21.564444 0.000000
1.600000 23.000000 0.000000
1.600000 24.435556 0.000000
1.600000 25.871111 0.000000
1.600000 27.306667 0.000000
1.600000 28.742222 0.000000
1.600000 30.177778 0.000000
1.600000 31.613333 0.000000
1.600000 33.048889 0.000000
1.600000 34.484444 0.000000
1.600000 35.920000 0.000000
1.600000 37.355556 0.000000
1.600000 38.791111 0.000000
1.600000 40.226667 0.000000
1.600000 41.662222 0.000000
1.600000 43.097778 0.000000
3.200000 4.337778 0.000000
3.200000 5.742222 0.000000
3.200000 7.146667 0.000000
3.200000 8.551111 0.000000
3.200000 9.955556 0.000000
3.200000 11.360000 0.000000
3.200000 12.764444 0.000000
3.200000 14.168889 0.000000
3.200000 15.573333 0.000000
3.200000 16.977778 0.000000
3.200000 18.382222 0.000000
3.200000 19.786667 0.000000
3.200000 21.191111 0.000000
3.200000 22.595556 0.000000
3.200000 24.000000 0.000000
3.200000 25.404444 0.000000
3.200000 26.808889 0.000000
3.200000 28.213333 0.000000
3.200000 29.617778 0.000000
3.200000 31.022222 0.000000
3.200000 32.426667 0.000000
3.200000 33.831111 0.000000
3.200000 35.235556 0.000000
3.200000 36.640000 0.000000
3.200000 38.044444 0.000000
3.200000 39.448889 0.000000
3.200000 40.853333 0.000000
3.200000 42.257778 0.000000
3.200000 43.662222 0.000000
4.800000 5.773333 0.000000
4.800000 7.146667 0.000000
4.800000 8.520000 0.000000
4.800000 9.893333 0.000000
4.800000 11.266667 0.000000
4.800000 12.640000 0.000000
4.800000 14.013333 0.000000
4.800000 15.386667 0.000000
4.800000 16.760000 0.000000
4.800000 18.133333 0.000000
4.800000 19.506667 0.000000
4.800000 20.880000 0.000000
4.800000 22.253333 0.000000
4.800000 23.626667 0.000000
4.800000 25.000000 0.000000
4.800000 26.373333 0.000000
4.800000 27.746667 0.000000
4.800000 29.120000 0.000000
4.800000 30.493333 0.000000
4.800000 31.866667 0.000000
4.800000 33.240000 0.000000
4.800000 34.613333 0.000000
4.800000 35.986667 0.000000
4.800000 37.360000 0.000000
4.800000 38.733333 0.000000
4.800000 40.106667 0.000000
4.800000 41.480000 0.000000
4.800000 42.853333 0.000000
4.800000 44.226667 0.000000
6.400000 7.208889 0.000000
6.400000 8.551111 0.000000
6.400000 9.893333 0.000000
6.400000 11.235556 0.000000
6.400000 12.577778 0.000000
6.400000 13.920000 0.000000
6.400000 15.262222 0.000000
6.400000 16.604444 0.000000
6.400000 17.946667 0.000000
6.400000 19.288889 0.000000
6.400000 20.631111 0.000000
6.400000 21.973333 0.000000
6.400000 23.315556 0.000000
6.400000 24.657778 0.000000
6.400000 26.000000 0.000000
6.400000 27.342222 0.000000
6.400000 28.684444 0.000000
6.400000 30.026667 0.000000
6.400000 31.368889 0.000000
6.400000 32.711111 0.000000
6.400000 34.053333 0.000000
6.400000 35.395556 0.000000
6.400000 36.737778 0.000000
6.400000 38.080000 0.000000
6.400000 39.422222 0.000000
6.400000 40.764444 0.000000
6.400000 42.106667 0.000000
6.400000 43.448889 0.000000
6.400000 44.791111 0.000000
8.000000 8.644444 0.000000
8.000000 9.955556 0.000000
8.000000 11.266667 0.000000
8.000000 12.577778 0.000000
8.000000 13.888889 0.000000
8.000000 15.200000 0.000000
8.000000 16.511111 0.000000
8.000000 17.822222 0.000000
8.000000 19.133333 0.000000
8.000000 20.444444 0.000000
8.000000 21.755556 0.000000
8.000000 23.066667 0.000000
8.000000 24.377778 0.000000
8.000000 25.688889 0.000000
8.000000 27.000000 0.000000
8.000000 28.311111 0.000000
8.000000 29.622222 0.000000
8.000000 30.933333 0.000000
8.000000 32.244444 0.000000
8.000000 33.555556 0.000000
8.000000 34.866667 0.000000
8.000000 36.177778 0.000000
8.000000 37.488889 0.000000
8.000000 38.800000 0.000000
8.000000 40.111111 0.000000
8.000000 41.422222 0.000000
8.000000 42.733333 0.000000
8.000000 44.044444 0.000000
8.000000 45.355556 0.000000
9.600000 10.080000 0.000000
9.600000 11.360000 0.000000
9.600000 12.640000 0.000000
9.600000 13.920000 0.000000
9.600000 15.200000 0.000000
9.600000 16.480000 0.000000
9.600000 17.760000 0.000000
9.600000 19.040000 0.000000
9.600000 20.320000 0.000000
9.600000 21.600000 0.000000
9.600000 22.880000 0.000000
9.600000 24.160000 0.000000
9.600000 25.440000 0.000000
9.600000 26.720000 0.000000
9.600000 28.000000 0.000000
9.600000 29.280000 0.000000
9.600000 30.560000 0.000000
9.600000 31.840000 0.000000
9.600000 33.120000 0.000000
9.600000 34.400000 0.000000
9.600000 35.680000 0.000000
9.600000 36.960000 0.000000
9.600000 38.240000 0.000000
9.600000 39.520000 0.000000
9.600000 40.800000 0.000000
9.600000 42.080000 0.000000
9.600000 43.360000 0.000000
9.600000 44.640000 0.000000
9.600000 45.920000 0.000000
11.200000 11.515556 0.000000
11.200000 12.764444 0.000000
11.200000 14.013333 0.000000
11.200000 15.262222 0.000000
11.200000 16.511111 0.000000
11.200000 17.760000 0.000000
11.200000 19.008889 0.000000
11.200000 20.257778 0.000000
11.200000 21.506667 0.000000
11.200000 22.755556 0.000000
11.200000 24.004444 0.000000
11.200000 25.253333 0.000000
11.200000 26.502222 0.000000
11.200000 27.751111 0.000000
11.200000 29.000000 0.000000
11.200000 30.248889 0.000000
11.200000 31.497778 0.000000
11.200000 32.746667 0.000000
11.200000 33.995556 0.000000
11.200000 35.244444 0.000000
11.200000 36.493333 0.000000
11.200000 37.742222 0.000000
11.200000 38.991111 0.000000
11.200000 40.240000 0.000000
11.200000 41.488889 0.000000
11.200000 42.737778 0.000000
11.200000 43.986667 0.000000
11.200000 45.235556 0.000000
11.200000 46.484444 0.000000
12.800000 12.951111 0.000000
12.800000 14.168889 0.000000
12.800000 15.386667 0.000000
12.800000 16.604444 0.000000
12.800000 17.822222 0.000000
12.800000 19.040000 0.000000
12.800000 20.257778 0.000000
12.800000 21.475556 0.000000
12.800000 22.693333 0.000000
12.800000 23.911111 0.000000
12.800000 25.128889 0.000000
12.800000 26.346667 0.000000
12.800000 27.564444 0.000000
12.800000 28.782222 0.000000
12.800000 30.000000 0.000000
12.800000 31.217778 0.000000
12.800000 32.435556 0.000000
12.800000 33.653333 0.000000
12.800000 34.871111 0.000000
12.800000 36.088889 0.000000
12.800000 37.306667 0.000000
12.800000 38.524444 0.000000
12.800000 39.742222 0.000000
12.800000 40.960000 0.000000
12.800000 42.177778 0.000000
12.800000 43.395556 0.000000
12.800000 44.613333 0.000000
12.800000 45.831111 0.000000
12.800000 47.048889 0.000000
14.400000 14.386667 0.000000
14.400000 15.573333 0.000000
14.400000 16.760000 0.000000
14.400000 17.946667 0.000000
14.400000 19.133333 0.000000
14.400000 20.320000 0.000000
14.400000 21.506667 0.000000
14.400000 22.693333 0.000000
14.400000 23.880000 0.000000
14.400000 25.066667 0.000000
14.400000 26.253333 0.000000
14.400000 27.440000 0.000000
14.400000 28.626667 0.000000
14.400000 29.813333 0.000000
14.400000 31.000000 0.000000
14.400000 32.186667 0.000000
14.400000 33.373333 0.000000
14.400000 34.560000 0.000000
14.400000 35.746667 0.000000
14.400000 36.933333 0.000000
14.400000 38.120000 0.000000
14.400000 39.306667 0.000000
14.400000 40.493333 0.000000
14.400000 41.680000 0.000000
14.400000 42.866667 0.000000
14.400000 44.053333 0.000000
14.400000 45.240000 0.000000
14.400000 46.426667 0.000000
14.400000 47.613333 0.000000
16.000000 15.822222 0.000000
16.000000 16.977778 0.000000
16.000000 18.133333 0.000000
16.000000 19.288889 0.000000
16.000000 20.444444 0.000000
16.000000 21.600000 0.000000
16.000000 22.755556 0.000000
16.000000 23.911111 0.000000
16.000000 25.066667 0.000000
16.000000 26.222222 0.000000
16.000000 27.377778 0.000000
16.000000 28.533333 0.000000
16.000000 29.688889 0.000000
16.000000 30.844444 0.000000
16.000000 32.000000 0.000000
16.000000 33.155556 0.000000
16.000000 34.311111 0.000000
16.000000 35.466667 0.000000
16.000000 36.622222 0.000000
16.000000 37.777778 0.000000
16.000000 38.933333 0.000000
16.000000 40.088889 0.000000
16.000000 41.244444 0.000000
16.000000 42.400000 0.000000
16.000000 43.555556 0.000000
16.000000 44.711111 0.000000
16.000000 45.866667 0.000000
16.000000 47.022222 0.000000
16.000000 48.177778 0.000000
17.600000 17.257778 0.000000
17.600000 18.382222 0.000000
17.600000 19.506667 0.000000
17.600000 20.631111 0.000000
17.600000 21.755556 0.000000
17.600000 22.880000 0.000000
17.600000 24.004444 0.000000
17.600000 25.128889 0.000000
17.600000 26.253333 0.000000
17.600000 27.377778 0.000000
17.600000 28.502222 0.000000
17.600000 29.626667 0.000000
17.600000 30.751111 0.000000
17.600000 31.875556 0.000000
17.600000 33.000000 0.000000
17.600000 34.124444 0.000000
17.600000 35.248889 0.000000
17.600000 36.373333 0.000000
17.600000 37.497778 0.000000
17.600000 38.622222 0.000000
17.600000 39.746667 0.000000
17.600000 40.871111 0.000000
17.600000 41.995556 0.000000
17.600000 43.120000 0.000000
17.600000 44.244444 0.000000
17.600000 45.368889 0.000000
17.600000 46.493333 0.000000
17.600000 47.617778 0.000000
17.600000 48.742222 0.000000
19.200000 18.693333 0.000000
19.200000 19.786667 0.000000
19.200000 20.880000 0.000000
19.200000 21.973333 0.000000
19.200000 23.066667 0.000000
19.200000 24.160000 0.000000
19.200000 25.253333 0.000000
19.200000 26.346667 0.000000
19.200000 27.440000 0.000000
19.200000 28.533333 0.000000
19.200000 29.626667 0.000000
19.200000 30.720000 0.000000
19.200000 31.813333 0.000000
19.200000 32.906667 0.000000
19.200000 34.000000 0.000000
19.200000 35.093333 0.000000
19.200000 36.186667 0.000000
19.200000 37.280000 0.000000
19.200000 38.373333 0.000000
19.200000 39.466667 0.000000
19.200000 40.560000 0.000000
19.200000 41.653333 0.000000
19.200000 42.746667 0.000000
19.200000 43.840000 0.000000
19.200000 44.933333 0.000000
19.200000 46.026667 0.000000
19.200000 47.120000 0.000000
19.200000 48.213333 0.000000
19.200000 49.306667 0.000000
20.800000 20.128889 0.000000
20.800000 21.191111 0.000000
20.800000 22.253333 0.000000
20.800000 23.315556 0.000000
20.800000 24.377778 0.000000
20.800000 25.440000 0.000000
20.800000 26.502222 0.000000
20.800000 27.564444 0.000000
20.800000 28.626667 0.000000
20.800000 29.688889 0.000000
20.800000 30.751111 0.000000
20.800000 31.813333 0.000000
20.800000 32.875556 0.000000
20.800000 33.937778 0.000000
20.800000 35.000000 0.000000
20.800000 36.062222 0.000000
20.800000 37.124444 0.000000
20.800000 38.186667 0.000000
20.800000 39.248889 0.000000
20.800000 40.311111 0.000000
20.800000 41.373333 0.000000
20.800000 42.435556 0.000000
20.800000 43.497778 0.000000
20.800000 44.560000 0.000000
20.800000 45.622222 0.000000
20.800000 46.684444 0.000000
20.800000 47.746667 0.000000
20.800000 48.808889 0.000000
20.800000 49.871111 0.000000
22.400000 21.564444 0.000000
22.400000 22.595556 0.000000
22.400000 23.626667 0.000000
22.400000 24.657778 0.000000
22.400000 25.688889 0.000000
22.400000 26.720000 0.000000
22.400000 27.751111 0.000000
22.400000 28.782222 0.000000
22.400000 29.813333 0.000000
22.400000 30.844444 0.000000
22.400000 31.875556 0.000000
22.400000 32.906667 0.000000
22.400000 33.937778 0.000000
22.400000 34.968889 0.000000
22.400000 36.000000 0.000000
22.400000 37.031111 0.000000
22.400000 38.062222 0.000000
22.400000 39.093333 0.000000
22.400000 40.124444 0.000000
22.400000 41.155556 0.000000
22.400000 42.186667 0.000000
22.400000 43.217778 0.000000
22.400000 44.248889 0.000000
22.400000 45.280000 0.000000
22.400000 46.311111 0.000000
22.400000 47.342222 0.000000
22.400000 48.373333 0.000000
22.400000 49.404444 0.000000
22.400000 50.435556 0.000000
24.000000 23.000000 0.000000
24.000000 24.000000 0.000000
24.000000 25.000000 0.000000
24.000000 26.000000 0.000000
24.000000 27.000000 0.000000
24.000000 28.000000 0.000000
24.000000 29.000000 0.000000
24.000000 30.000000 0.000000
24.000000 31.000000 0.000000
24.000000 32.000000 0.000000
24.000000 33.000000 0.000000
24.000000 34.000000 0.000000
24.000000 35.000000 0.000000
24.000000 36.000000 0.000000
24.000000 37.000000 0.000000
24.000000 38.000000 0.000000
24.000000 39.000000 0.000000
24.000000 40.000000 0.000000
24.000000 41.000000 0.000000
24.000000 42.000000 0.000000
24.000000 43.000000 0.000000
24.000000 44.000000 0.000000
24.000000 45.000000 0.000000
24.000000 46.000000 0.000000
24.000000 47.000000 0.000000
24.000000 48.000000 0.000000
24.000000 49.000000 0.000000
24.000000 50.000000 0.000000
24.000000 51.000000 0.000000
25.600000 24.435556 0.000000
25.600000 25.404444 0.000000
25.600000 26.373333 0.000000
25.600000 27.342222 0.000000
25.600000 28.311111 0.000000
25.600000 29.280000 0.000000
25.600000 30.248889 0.000000
25.600000 31.217778 0.000000
25.600000 32.186667 0.000000
25.600000 33.155556 0.000000
25.600000 34.124444 0.000000
25.600000 35.093333 0.000000
25.600000 36.062222 0.000000
25.600000 37.031111 0.000000
25.600000 38.000000 0.000000
25.600000 38.968889 0.000000
25.600000 39.937778 0.000000
25.600000 40.906667 0.000000
25.600000 41.875556 0.000000
25.600000 42.844444 0.000000
25.600000 43.813333 0.000000
25.600000 44.782222 0.000000
25.600000 45.751111 0.000000
25.600000 46.720000 0.000000
25.600000 47.688889 0.000000
25.600000 48.657778 0.000000
25.600000 49.626667 0.000000
25.600000 50.595556 0.000000
25.600000 51.564444 0.000000
27.200000 25.871111 0.000000
27.200000 26.808889 0.000000
27.200000 27.746667 0.000000
27.200000 28.684444 0.000000
27.200000 29.622222 0.000000
27.200000 30.560000 0.000000
27.200000 31.497778 0.000000
27.200000 32.435556 0.000000
27.200000 33.373333 0.000000
27.200000 34.311111 0.000000
27.200000 35.248889 0.000000
27.200000 36.186667 0.000000
27.200000 37.124444 0.000000
27.200000 38.062222 0.000000
27.200000 39.000000 0.000000
27.200000 39.937778 0.000000
27.200000 40.875556 0.000000
27.200000 41.813333 0.000000
27.200000 42.751111 0.000000
27.200000 43.688889 0.000000
27.200000 44.626667 0.000000
27.200000 45.564444 0.000000
27.200000 46.502222 0.000000
27.200000 47.440000 0.000000
27.200000 48.377778 0.000000
27.200000 49.315556 0.000000
27.200000 50.253333 0.000000
27.200000 51.191111 0.000000
27.200000 52.128889 0.000000
28.800000 27.306667 0.000000
28.800000 28.213333 0.000000
28.800000 29.120000 0.000000
28.800000 30.026667 0.000000
28.800000 30.933333 0.000000
28.800000 31.840000 0.000000
28.800000 32.746667 0.000000
28.800000 33.653333 0.000000
28.800000 34.560000 0.000000
28.800000 35.466667 0.000000
28.800000 36.373333 0.000000
28.800000 37.280000 0.000000
28.800000 38.186667 0.000000
28.800000 39.093333 0.000000
28.800000 40.000000 0.000000
28.800000 40.906667 0.000000
28.800000 41.813333 0.000000
28.800000 42.720000 0.000000
28.800000 43.626667 0.000000
28.800000 44.533333 0.000000
28.800000 45.440000 0.000000
28.800000 46.346667 0.000000
28.800000 47.253333 0.000000
28.800000 48.160000 0.000000
28.800000 49.066667 0.000000
28.800000 49.973333 0.000000
28.800000 50.880000 0.000000
28.800000 51.786667 0.000000
28.800000 52.693333 0.000000
30.400000 28.742222 0.000000
30.400000 29.617778 0.000000
30.400000 30.493333 0.000000
30.400000 31.368889 0.000000
30.400000 32.244444 0.000000
30.400000 33.120000 0.000000
30.400000 33.995556 0.000000
30.400000 34.871111 0.000000
30.400000 35.746667 0.000000
30.400000 36.622222 0.000000
30.400000 37.497778 0.000000
30.400000 38.373333 0.000000
30.400000 39.248889 0.000000
30.400000 40.124444 0.000000
30.400000 41.000000 0.000000
30.400000 41.875556 0.000000
30.400000 42.751111 0.000000
30.400000 43.626667 0.000000
30.400000 44.502222 0.000000
30.400000 45.377778 0.000000
30.400000 46.253333 0.000000
30.400000 47.128889 0.000000
30.400000 48.004444 0.000000
30.400000 48.880000 0.000000
30.400000 49.755556 0.000000
30.400000 50.631111 0.000000
30.400000 51.506667 0.000000
30.400000 52.382222 0.000000
30.400000 53.257778 0.000000
32.000000 30.177778 0.000000
32.000000 31.022222 0.000000
32.000000 31.866667 0.000000
32.000000 32.711111 0.000000
32.000000 33.555556 0.000000
32.000000 34.400000 0.000000
32.000000 35.244444 0.000000
32.000000 36.088889 0.000000
32.000000 36.933333 0.000000
32.000000 37.777778 0.000000
32.000000 38.622222 0.000000
32.000000 39.466667 0.000000
32.000000 40.311111 0.000000
32.000000 41.155556 0.000000
32.000000 42.000000 0.000000
32.000000 42.844444 0.000000
32.000000 43.688889 0.000000
32.000000 44.533333 0.000000
32.000000 45.377778 0.000000
32.000000 46.222222 0.000000
32.000000 47.066667 0.000000
32.000000 47.911111 0.000000
32.000000 48.755556 0.000000
32.000000 49.600000 0.000000
32.000000 50.444444 0.000000
32.000000 51.288889 0.000000
32.000000 52.133333 0.000000
32.000000 52.977778 0.000000
32.000000 53.822222 0.000000
33.600000 31.613333 0.000000
33.600000 32.426667 0.000000
33.600000 33.240000 0.000000
33.600000 34.053333 0.000000
33.600000 34.866667 0.000000
33.600000 35.680000 0.000000
33.600000 36.493333 0.000000
33.600000 37.306667 0.000000
33.600000 38.120000 0.000000
33.600000 38.933333 0.000000
33.600000 39.746667 0.000000
33.600000 40.560000 0.000000
33.600000 41.373333 0.000000
33.600000 42.186667 0.000000
33.600000 43.000000 0.000000
33.600000 43.813333 0.000000
33.600000 44.626667 0.000000
33.600000 45.440000 0.000000
33.600000 46.253333 0.000000
33.600000 47.066667 0.000000
33.600000 47.880000 0.000000
33.600000 48.693333 0.000000
33.600000 49.506667 0.000000
33.600000 50.320000 0.000000
33.600000 51.133333 0.000000
33.600000 51.946667 0.000000
33.600000 52.760000 0.000000
33.600000 53.573333 0.000000
33.600000 54.386667 0.000000
35.200000 33.048889 0.000000
35.200000 33.831111 0.000000
35.200000 34.613333 0.000000
35.200000 35.395556 0.000000
35.200000 36.177778 0.000000
35.200000 36.960000 0.000000
35.200000 37.742222 0.000000
35.200000 38.524444 0.000000
35.200000 39.306667 0.000000
35.200000 40.088889 0.000000
35.200000 40.871111 0.000000
35.200000 41.653333 0.000000
35.200000 42.435556 0.000000
35.200000 43.217778 0.000000
35.200000 44.000000 0.000000
35.200000 44.782222 0.000000
35.200000 45.564444 0.000000
35.200000 46.346667 0.000000
35.200000 47.128889 0.000000
35.200000 47.911111 0.000000
35.200000 48.693333 0.000000
35.200000 49.475556 0.000000
35.200000 50.257778 0.000000
35.200000 51.040000 0.000000
35.200000 51.822222 0.000000
35.200000 52.604444 0.000000
35.200000 53.386667 0.000000
35.200000 54.168889 0.000000
35.200000 54.951111 0.000000
36.800000 34.484444 0.000000
36.800000 35.235556 0.000000
36.800000 35.986667 0.000000
36.800000 36.737778 0.000000
36.800000 37.488889 0.000000
36.800000 38.240000 0.000000
36.800000 38.991111 0.000000
36.800000 39.742222 0.000000
36.800000 40.493333 0.000000
36.800000 41.244444 0.000000
36.800000 41.995556 0.000000
36.800000 42.746667 0.000000
36.800000 43.497778 0.000000
36.800000 44.248889 0.000000
36.800000 45.000000 0.000000
36.800000 45.751111 0.000000
36.800000 46.502222 0.000000
36.800000 47.253333 0.000000
36.800000 48.004444 0.000000
36.800000 48.755556 0.000000
36.800000 49.506667 0.000000
36.800000 50.257778 0.000000
36.800000 51.008889 0.000000
36.800000 51.760000 0.000000
36.800000 52.511111 0.000000
36.800000 53.262222 0.000000
36.800000 54.013333 0.000000
36.800000 54.764444 0.000000
36.800000 55.515556 0.000000
38.400000 35.920000 0.000000
38.400000 36.640000 0.000000
38.400000 37.360000 0.000000
38.400000 38.080000 0.000000
38.400000 38.800000 0.000000
38.400000 39.520000 0.000000
38.400000 40.240000 0.000000
38.400000 40.960000 0.000000
38.400000 41.680000 0.000000
38.400000 42.400000 0.000000
38.400000 43.120000 0.000000
38.400000 43.840000 0.000000
38.400000 44.560000 0.000000
38.400000 45.280000 0.000000
38.400000 46.000000 0.000000
38.400000 46.720000 0.000000
38.400000 47.440000 0.000000
38.400000 48.160000 0.000000
38.400000 48.880000 0.000000
38.400000 49.600000 0.000000
38.400000 50.320000 0.000000
38.400000 51.040000 0.000000
38.400000 51.760000 0.000000
38.400000 52.480000 0.000000
38.400000 53.200000 0.000000
38.400000 53.920000 0.000000
38.400000 54.640000 0.000000
38.400000 55.360000 0.000000
38.400000 56.080000 0.000000
40.000000 37.355556 0.000000
40.000000 38.044444 0.000000
40.000000 38.733333 0.000000
40.000000 39.422222 0.000000
40.000000 40.111111 0.000000
40.000000 40.800000 0.000000
40.000000 41.488889 0.000000
40.000000 42.177778 0.000000
40.000000 42.866667 0.000000
40.000000 43.555556 0.000000
40.000000 44.244444 0.000000
40.000000 44.933333 0.000000
40.000000 45.622222 0.000000
40.000000 46.311111 0.000000
40.000000 47.000000 0.000000
40.000000 47.688889 0.000000
40.000000 48.377778 0.000000
40.000000 49.066667 0.000000
40.000000 49.755556 0.000000
40.000000 50.444444 0.000000
40.000000 51.133333 0.000000
40.000000 51.822222 0.000000
40.000000 52.511111 0.000000
40.000000 53.200000 0.000000
40.000000 53.888889 0.000000
40.000000 54.577778 0.000000
40.000000 55.266667 0.000000
40.000000 55.955556 0.000000
40.000000 56.644444 0.000000
41.600000 38.791111 0.000000
41.600000 39.448889 0.000000
41.600000 40.106667 0.000000
41.600000 40.764444 0.000000
41.600000 41.422222 0.000000
41.600000 42.080000 0.000000
41.600000 42.737778 0.000000
41.600000 43.395556 0.000000
41.600000 44.053333 0.000000
41.600000 44.711111 0.000000
41.600000 45.368889 0.000000
41.600000 46.026667 0.000000
41.600000 46.684444 0.000000
41.600000 47.342222 0.000000
41.600000 48.000000 0.000000
41.600000 48.657778 0.000000
41.600000 49.315556 0.000000
41.600000 49.973333 0.000000
41.600000 50.631111 0.000000
41.600000 51.288889 0.000000
41.600000 51.946667 0.000000
41.600000 52.604444 0.000000
41.600000 53.262222 0.000000
41.600000 53.920000 0.000000
41.600000 54.577778 0.000000
41.600000 55.235556 0.000000
41.600000 55.893333 0.000000
41.600000 56.551111 0.000000
41.600000 57.208889 0.000000
43.200000 40.226667 0.000000
43.200000 40.853333 0.000000
43.200000 41.480000 0.000000
43.200000 42.106667 0.000000
43.200000 42.733333 0.000000
43.200000 43.360000 0.000000
43.200000 43.986667 0.000000
43.200000 44.613333 0.000000
43.200000 45.240000 0.000000
43.200000 45.866667 0.000000
43.200000 46.493333 0.000000
43.200000 47.120000 0.000000
43.200000 47.746667 0.000000
43.200000 48.373333 0.000000
43.200000 49.000000 0.000000
43.200000 49.626667 0.000000
43.200000 50.253333 0.000000
43.200000 50.880000 0.000000
43.200000 51.506667 0.000000
43.200000 52.133333 0.000000
43.200000 52.760000 0.000000
43.200000 53.386667 0.000000
43.200000 54.013333 0.000000
43.200000 54.640000 0.000000
43.200000 55.266667 0.000000
43.200000 55.893333 0.000000
43.200000 56.520000 0.000000
43.200000 57.146667 0.000000
43.200000 57.773333 0.000000
44.800000 41.662222 0.000000
44.800000 42.257778 0.000000
44.800000 42.853333 0.000000
44.800000 43.448889 0.000000
44.800000 44.044444 0.000000
44.800000 44.640000 0.000000
44.800000 45.235556 0.000000
44.800000 45.831111 0.000000
44.800000 46.426667 0.000000
44.800000 47.022222 0.000000
44.800000 47.617778 0.000000
44.800000 48.213333 0.000000
44.800000 48.808889 0.000000
44.800000 49.404444 0.000000
44.800000 50.000000 0.000000
44.800000 50.595556 0.000000
44.800000 51.191111 0.000000
44.800000 51.786667 0.000000
44.800000 52.382222 0.000000
44.800000 52.977778 0.000000
44.800000 53.573333 0.000000
44.800000 54.168889 0.000000
44.800000 54.764444 0.000000
44.800000 55.360000 0.000000
44.800000 55.955556 0.000000
44.800000 56.551111 0.000000
44.800000 57.146667 0.000000
44.800000 57.742222 0.000000
44.800000 58.337778 0.000000
46.400000 43.097778 0.000000
46.400000 43.662222 0.000000
46.400000 44.226667 0.000000
46.400000 44.791111 0.000000
46.400000 45.355556 0.000000
46.400000 45.920000 0.000000
46.400000 46.484444 0.000000
46.400000 47.048889 0.000000
46.400000 47.613333 0.000000
46.400000 48.177778 0.000000
46.400000 48.742222 0.000000
46.400000 49.306667 0.000000
46.400000 49.871111 0.000000
46.400000 50.435556 0.000000
46.400000 51.000000 0.000000
46.400000 51.564444 0.000000
46.400000 52.128889 0.000000
46.400000 52.693333 0.000000
46.400000 53.257778 0.000000
46.400000 53.822222 0.000000
46.400000 54.386667 0.000000
46.400000 54.951111 0.000000
46.400000 55.515556 0.000000
46.400000 56.080000 0.000000
46.400000 56.644444 0.000000
46.400000 57.208889 0.000000
46.400000 57.773333 0.000000
46.400000 58.337778 0.000000
46.400000 58.902222 0.000000
POLYGONS 1800 7200
3 0 4 119
3 119 4 120
3 119 120 118
3 118 120 121
3 118 121 117
3 117 121 122
3 117 122 116
3 116 122 123
3 116 123 115
3 115 123 124
3 115 124 114
3 114 124 125
3 114 125 113
3 113 125 126
3 113 126 112
3 112 126 127
3 112 127 111
3 111 127 128
3 111 128 110
3 110 128 129
3 110 129 109
3 109 129 130
3 109 130 108
3 108 130 131
3 108 131 107
3 107 131 132
3 107 132 106
3 106 132 133
3 106 133 105
3 105 133 134
3 105 134 104
3 104 134 135
3 104 135 103
3 103 135 136
3 103 136 102
3 102 136 137
3 102 137 101
3 101 137 138
3 101 138 100
3 100 138 139
3 100 139 99
3 99 139 140
3 99 140 98
3 98 140 141
3 98 141 97
3 97 141 142
3 97 142 96
3 96 142 143
3 96 143 95
3 95 143 144
3 95 144 94
3 94 144 145
3 94 145 93
3 93 145 146
3 93 146 92
3 92 146 147
3 92 147 91
3 91 147 148
3 91 148 3
3 3 148 90
3 4 5 120
3 120 5 149
3 120 149 121
3 121 149 150
3 121 150 122
3 122 150 151
3 122 151 123
3 123 151 152
3 123 152 124
3 124 152 153
3 124 153 125
3 125 153 154
3 125 154 126
3 126 154 155
3 126 155 127
3 127 155 156
3 127 156 128
3 128 156 157
3 128 157 129
3 129 157 158
3 129 158 130
3 130 158 159
3 130 159 131
3 131 159 160
3 131 160 132
3 132 160 161
3 132 161 133
3 133 161 162
3 133 162 134
3 134 162 163
3 134 163 135
3 135 163 164
3 135 164 136
3 136 164 165
3 136 165 137
3 137 165 166
3 137 166 138
3 138 166 167
3 138 167 139
3 139 167 168
3 139 168 140
3 140 168 169
3 140 169 141
3 141 169 170
3 141 170 142
3 142 170 171
3 142 171 143
3 143 171 172
3 143 172 144
3 144 172 173
3 144 173 145
3 145 173 174
3 145 174 146
3 146 174 175
3 146 175 147
3 147 175 176
3 147 176 148
3 148 176 177
3 148 177 90
3 90 177 89
3 5 6 149
3 149 6 178
3 149 178 150
3 150 178 179
3 150 179 151
3 151 179 180
3 151 180 152
3 152 180 181
3 152 181 153
3 153 181 182
3 153 182 154
3 154 182 183
3 154 183 155
3 155 183 184
3 155 184 156
3 156 184 185
3 156 185 157
3 157 185 186
3 157 186 158
3 158 186 187
3 158 187 159
3 159 187 188
3 159 188 160
3 160 188 189
3 160 189 161
3 161 189 190
3 161 190 162
3 162 190 191
3 162 191 163
3 163 191 192
3 163 192 164
3 164 192 193
3 164 193 165
3 165 193 194
3 165 194 166
3 166 194 195
3 166 195 167
3 167 195 196
3 167 196 168
3 168 196 197
3 168 197 169
3 169 197 198
3 169 198 170
3 170 198 199
3 170 199 171
3 171 199 200
3 171 200 172
3 172 200 201
3 172 201 173
3 173 201 202
3 173 202 174
3 174 202 203
3 174 203 175
3 175 203 204
3 175 204 176
3 176 204 205
3 176 205 177
3 177 205 206
3 177 206 89
3 89 206 88
3 6 7 178
3 178 7 207
3 178 207 179
3 179 207 208
3 179 208 180
3 180 208 209
3 180 209 181
3 181 209 210
3 181 210 182
3 182 210 211
3 182 211 183
3 183 211 212
3 183 212 184
3 184 212 213
3 184 213 185
3 185 213 214
3 185 214 186
3 186 214 215
3 186 215 187
3 187 215 216
3 187 216 188
3 188 216 217
3 188 217 189
3 189 217 218
3 189 218 190
3 190 218 219
3 190 219 191
3 191 219 220
3 191 220 192
3 192 220 221
3 192 221 193
3 193 221 222
3 193 222 194
3 194 222 223
3 194 223 195
3 195 223 224
3 195 224 196
3 196 224 225
3 196 225 197
3 197 225 226
3 197 226 198
3 198 226 227
3 198 227 199
3 199 227 228
3 199 228 200
3 200 228 229
3 200 229 201
3 201 229 230
3 201 230 202
3 202 230 231
3 202 231 203
3 203 231 232
3 203 232 204
3 204 232 233
3 204 233 205
3 205 233 234
3 205 234 206
3 206 234 235
3 206 235 88
3 88 235 87
3 7 8 207
3 207 8 236
3 207 236 208
3 208 236 237
3 208 237 209
3 209 237 238
3 209 238 210
3 210 238 239
3 210 239 211
3 211 239 240
3 211 240 212
3 212 240 241
3 212 241 213
3 213 241 242
3 213 242 214
3 214 242 243
3 214 243 215
3 215 243 244
3 215 244 216
3 216 244 245
3 216 245 217
3 217 245 246
3 217 246 218
3 218 246 247
3 218 247 219
3 219 247 248
3 219 248 220
3 220 248 249
3 220 249 221
3 221 249 250
3 221 250 222
3 222 250 251
3 222 251 223
3 223 251 252
3 223 252 224
3 224 252 253
3 224 253 225
3 225 253 254
3 225 254 226
3 226 254 255
3 226 255 227
3 227 255 256
3 227 256 228
3 228 256 257
3 228 257 229
3 229 257 258
3 229 258 230
3 230 258 259
3 230 259 231
3 231 259 260
3 231 260 232
3 232 260 261
3 232 261 233
3 233 261 262
3 233 262 234
3 234 262 263
3 234 263 235
3 235 263 264
3 235 264 87
3 87 264 86
3 8 9 236
3 236 9 265
3 236 265 237
3 237 265 266
3 237 266 238
3 238 266 267
3 238 267 239
3 239 267 268
3 239 268 240
3 240 268 269
3 240 269 241
3 241 269 270
3 241 270 242
3 242 270 271
3 242 271 243
3 243 271 272
3 243 272 244
3 244 272 273
3 244 273 245
3 245 273 274
3 245 274 246
3 246 274 275
3 246 275 247
3 247 275 276
3 247 276 248
3 248 276 277
3 248 277 249
3 249 277 278
3 249 278 250
3 250 278 279
3 250 279 251
3 251 279 280
3 251 280 252
3 252 280 281
3 252 281 253
3 253 281 282
3 253 282 254
3 254 282 283
3 254 283 255
3 255 283 284
3 255 284 256
3 256 284 285
3 256 285 257
3 257 285 286
3 257 286 258
3 258 286 287
3 258 287 259
3 259 287 288
3 259 288 260
3 260 288 289
3 260 289 261
3 261 289 290
3 261 290 262
3 262 290 291
3 262 291 263
3 263 291 292
3 263 292 264
3 264 292 293
3 264 293 86
3 86 293 85
3 9 10 265
3 265 10 294
3 265 294 266
3 266 294 295
3 266 295 267
3 267 295 296
3 267 296 268
3 268 296 297
3 268 297 269
3 269 297 298
3 269 298 270
3 270 298 299
3 270 299 271
3 271 299 300
3 271 300 272
3 272 300 301
3 272 301 273
3 273 301 302
3 273 302 274
3 274 302 303
3 274 303 275
3 275 303 304
3 275 304 276
3 276 304 305
3 276 305 277
3 277 305 306
3 277 306 278
3 278 306 307
3 278 307 279
3 279 307 308
3 279 308 280
3 280 308 309
3 280 309 281
3 281 309 310
3 281 310 282
3 282 310 311
3 282 311 283
3 283 311 312
3 283 312 284
3 284 312 313
3 284 313 285
3 285 313 314
3 285 314 286
3 286 314 315
3 286 315 287
3 287 315 316
3 287 316 288
3 288 316 317
3 288 317 289
3 289 317 318
3 289 318 290
3 290 318 319
3 290 319 291
3 291 319 320
3 291 320 292
3 292 320 321
3 292 321 293
3 293 321 322
3 293 322 85
3 85 322 84
3 10 11 294
3 294 11 323
3 294 323 295
3 295 323 324
3 295 324 296
3 296 324 325
3 296 325 297
3 297 325 326
3 297 326 298
3 298 326 327
3 298 327 299
3 299 327 328
3 299 328 300
3 300 328 329
3 300 329 301
3 301 329 330
3 301 330 302
3 302 330 331
3 302 331 303
3 303 331 332
3 303 332 304
3 304 332 333
3 304 333 305
3 305 333 334
3 305 334 306
3 306 334 335
3 306 335 307
3 307 335 336
3 307 336 308
3 308 336 337
3 308 337 309
3 309 337 338
3 309 338 310
3 310 338 339
3 310 339 311
3 311 339 340
3 311 340 312
3 312 340 341
3 312 341 313
3 313 341 342
3 313 342 314
3 314 342 343
3 314 343 315
3 315 343 344
3 315 344 316
3 316 344 345
3 316 345 317
3 317 345 346
3 317 346 318
3 318 346 347
3 318 347 319
3 319 347 348
3 319 348 320
3 320 348 349
3 320 349 321
3 321 349 350
3 321 350 322
3 322 350 351
3 322 351 84
3 84 351 83
3 11 12 323
3 323 12 352
3 323 352 324
3 324 352 353
3 324 353 325
3 325 353 354
3 325 354 326
3 326 354 355
3 326 355 327
3 327 355 356
3 327 356 328
3 328 356 357
3 328 357 329
3 329 357 358
3 329 358 330
3 330 358 359
3 330 359 331
3 331 359 360
3 331 360 332
3 332 360 361
3 332 361 333
3 333 361 362
3 333 362 334
3 334 362 363
3 334 363 335
3 335 363 364
3 335 364 336
3 336 364 365
3 336 365 337
3 337 365 366
3 337 366 338
3 338 366 367
3 338 367 339
3 339 367 368
3 339 368 340
3 340 368 369
3 340 369 341
3 341 369 370
3 341 370 342
3 342 370 371
3 342 371 343
3 343 371 372
3 343 372 344
3 344 372 373
3 344 373 345
3 345 373 374
3 345 374 346
3 346 374 375
3 346 375 347
3 347 375 376
3 347 376 348
3 348 376 377
3 348 377 349
3 349 377 378
3 349 378 350
3 350 378 379
3 350 379 351
3 351 379 380
3 351 380 83
3 83 380 82
3 12 13 352
3 352 13 381
3 352 381 353
3 353 381 382
3 353 382 354
3 354 382 383
3 354 383 355
3 355 383 384
3 355 384 356
3 356 384 385
3 356 385 357
3 357 385 386
3 357 386 358
3 358 386 387
3 358 387 359
3 359 387 388
3 359 388 360
3 360 388 389
3 360 389 361
3 361 389 390
3 361 390 362
3 362 390 391
3 362 391 363
3 363 391 392
3 363 392 364
3 364 392 393
3 364 393 365
3 365 393 394
3 365 394 366
3 366 394 395
3 366 395 367
3 367 395 396
3 367 396 368
3 368 396 397
3 368 397 369
3 369 397 398
3 369 398 370
3 370 398 399
3 370 399 371
3 371 399 400
3 371 400 372
3 372 400 401
3 372 401 373
3 373 401 402
3 373 402 374
3 374 402 403
3 374 403 375
3 375 403 404
3 375 404 376
3 376 404 405
3 376 405 377
3 377 405 406
3 377 406 378
3 378 406 407
3 378 407 379
3 379 407 408
3 379 408 380
3 380 408 409
3 380 409 82
3 82 409 81
3 13 14 381
3 381 14 410
3 381 410 382
3 382 410 411
3 382 411 383
3 383 411 412
3 383 412 384
3 384 412 413
3 384 413 385
3 385 413 414
3 385 414 386
3 386 414 415
3 386 415 387
3 387 415 416
3 387 416 388
3 388 416 417
3 388 417 389
3 389 417 418
3 389 418 390
3 390 418 419
3 390 419 391
3 391 419 420
3 391 420 392
3 392 420 421
3 392 421 393
3 393 421 422
3 393 422 394
3 394 422 423
3 394 423 395
3 395 423 424
3 395 424 396
3 396 424 425
3 396 425 397
3 397 425 426
3 397 426 398
3 398 426 427
3 398 427 399
3 399 427 428
3 399 428 400
3 400 428 429
3 400 429 401
3 401 429 430
3 401 430 402
3 402 430 431
3 402 431 403
3 403 431 432
3 403 432 404
3 404 432 433
3 404 433 405
3 405 433 434
3 405 434 406
3 406 434 435
3 406 435 407
3 407 435 436
3 407 436 408
3 408 436 437
3 408 437 409
3 409 437 438
3 409 438 81
3 81 438 80
3 14 15 410
3 410 15 439
3 410 439 411
3 411 439 440
3 411 440 412
3 412 440 441
3 412 441 413
3 413 441 442
3 413 442 414
3 414 442 443
3 414 443 415
3 415 443 444
3 415 444 416
3 416 444 445
3 416 445 417
3 417 445 446
3 417 446 418
3 418 446 447
3 418 447 419
3 419 447 448
3 419 448 420
3 420 448 449
3 420 449 421
3 421 449 450
3 421 450 422
3 422 450 451
3 422 451 423
3 423 451 452
3 423 452 424
3 424 452 453
3 424 453 425
3 425 453 454
3 425 454 426
3 426 454 455
3 426 455 427
3 427 455 456
3 427 456 428
3 428 456 457
3 428 457 429
3 429 457 458
3 429 458 430
3 430 458 459
3 430 459 431
3 431 459 460
3 431 460 432
3 432 460 461
3 432 461 433
3 433 461 462
3 433 462 434
3 434 462 463
3 434 463 435
3 435 463 464
3 435 464 436
3 436 464 465
3 436 465 437
3 437 465 466
3 437 466 438
3 438 466 467
3 438 467 80
3 80 467 79
3 15 16 439
3 439 16 468
3 439 468 440
3 440 468 469
3 440 469 441
3 441 469 470
3 441 470 442
3 442 470 471
3 442 471 443
3 443 471 472
3 443 472 444
3 444 472 473
3 444 473 445
3 445 473 474
3 445 474 446
3 446 474 475
3 446 475 447
3 447 475 476
3 447 476 448
3 448 476 477
3 448 477 449
3 449 477 478
3 449 478 450
3 450 478 479
3 450 479 451
3 451 479 480
3 451 480 452
3 452 480 481
3 452 481 453
3 453 481 482
3 453 482 454
3 454 482 483
3 454 483 455
3 455 483 484
3 455 484 456
3 456 484 485
3 456 485 457
3 457 485 486
3 457 486 458
3 458 486 487
3 458 487 459
3 459 487 488
3 459 488 460
3 460 488 489
3 460 489 461
3 461 489 490
3 461 490 462
3 462 490 491
3 462 491 463
3 463 491 492
3 463 492 464
3 464 492 493
3 464 493 465
3 465 493 494
3 465 494 466
3 466 494 495
3 466 495 467
3 467 495 496
3 467 496 79
3 79 496 78
3 16 17 468
3 468 17 497
3 468 497 469
3 469 497 498
3 469 498 470
3 470 498 499
3 470 499 471
3 471 499 500
3 471 500 472
3 472 500 501
3 472 501 473
3 473 501 502
3 473 502 474
3 474 502 503
3 474 503 475
3 475 503 504
3 475 504 476
3 476 504 505
3 476 505 477
3 477 505 506
3 477 506 478
3 478 506 507
3 478 507 479
3 479 507 508
3 479 508 480
3 480 508 509
3 480 509 481
3 481 509 510
3 481 510 482
3 482 510 511
3 482 511 483
3 483 511 512
3 483 512 484
3 484 512 513
3 484 513 485
3 485 513 514
3 485 514 486
3 486 514 515
3 486 515 487
3 487 515 516
3 487 516 488
3 488 516 517
3 488 517 489
3 489 517 518
3 489 518 490
3 490 518 519
3 490 519 491
3 491 519 520
3 491 520 492
3 492 520 521
3 492 521 493
3 493 521 522
3 493 522 494
3 494 522 523
3 494 523 495
3 495 523 524
3 495 524 496
3 496 524 525
3 496 525 78
3 78 525 77
3 17 18 497
3 497 18 526
3 497 526 498
3 498 526 527
3 498 527 499
3 499 527 528
3 499 528 500
3 500 528 529
3 500 529 501
3 501 529 530
3 501 530 502
3 502 530 531
3 502 531 503
3 503 531 532
3 503 532 504
3 504 532 533
3 504 533 505
3 505 533 534
3 505 534 506
3 506 534 535
3 506 535 507
3 507 535 536
3 507 536 508
3 508 536 537
3 508 537 509
3 509 537 538
3 509 538 510
3 510 538 539
3 510 539 511
3 511 539 540
3 511 540 512
3 512 540 541
3 512 541 513
3 513 541 542
3 513 542 514
3 514 542 543
3 514 543 515
3 515 543 544
3 515 544 516
3 516 544 545
3 516 545 517
3 517 545 546
3 517 546 518
3 518 546 547
3 518 547 519
3 519 547 548
3 519 548 520
3 520 548 549
3 520 549 521
3 521 549 550
3 521 550 522
3 522 550 551
3 522 551 523
3 523 551 552
3 523 552 524
3 524 552 553
3 524 553 525
3 525 553 554
3 525 554 77
3 77 554 76
3 18 19 526
3 526 19 555
3 526 555 527
3 527 555 556
3 527 556 528
3 528 556 557
3 528 557 529
3 529 557 558
3 529 558 530
3 530 558 559
3 530 559 531
3 531 559 560
3 531 560 532
3 532 560 561
3 532 561 533
3 533 561 562
3 533 562 534
3 534 562 563
3 534 563 535
3 535 563 564
3 535 564 536
3 536 564 565
3 536 565 537
3 537 565 566
3 537 566 538
3 538 566 567
3 538 567 539
3 539 567 568
3 539 568 540
3 540 568 569
3 540 569 541
3 541 569 570
3 541 570 542
3 542 570 571
3 542 571 543
3 543 571 572
3 543 572 544
3 544 572 573
3 544 573 545
3 545 573 574
3 545 574 546
3 546 574 575
3 546 575 547
3 547 575 576
3 547 576 548
3 548 576 577
3 548 577 549
3 549 577 578
3 549 578 550
3 550 578 579
3 550 579 551
3 551 579 580
3 551 580 552
3 552 580 581
3 552 581 553
3 553 581 582
3 553 582 554
3 554 582 583
3 554 583 76
3 76 583 75
3 19 20 555
3 555 20 584
3 555 584 556
3 556 584 585
3 556 585 557
3 557 585 586
3 557 586 558
3 558 586 587
3 558 587 559
3 559 587 588
3 559 588 560
3 560 588 589
3 560 589 561
3 561 589 590
3 561 590 562
3 562 590 591
3 562 591 563
3 563 591 592
3 563 592 564
3 564 592 593
3 564 593 565
3 565 593 594
3 565 594 566
3 566 594 595
3 566 595 567
3 567 595 596
3 567 596 568
3 568 596 597
3 568 597 569
3 569 597 598
3 569 598 570
3 570 598 599
3 570 599 571
3 571 599 600
3 571 600 572
3 572 600 601
3 572 601 573
3 573 601 602
3 573 602 574
3 574 602 603
3 574 603 575
3 575 603 604
3 575 604 576
3 576 604 605
3 576 605 577
3 577 605 606
3 577 606 578
3 578 606 607
3 578 607 579
3 579 607 608
3 579 608 580
3 580 608 609
3 580 609 581
3 581 609 610
3 581 610 582
3 582 610 611
3 582 611 583
3 583 611 612
3 583 612 75
3 75 612 74
3 20 21 584
3 584 21 613
3 584 613 585
3 585 613 614
3 585 614 586
3 586 614 615
3 586 615 587
3 587 615 616
3 587 616 588
3 588 616 617
3 588 617 589
3 589 617 618
3 589 618 590
3 590 618 619
3 590 619 591
3 591 619 620
3 591 620 592
3 592 620 621
3 592 621 593
3 593 621 622
3 593 622 594
3 594 622 623
3 594 623 595
3 595 623 624
3 595 624 596
3 596 624 625
3 596 625 597
3 597 625 626
3 597 626 598
3 598 626 627
3 598 627 599
3 599 627 628
3 599 628 600
3 600 628 629
3 600 629 601
3 601 629 630
3 601 630 602
3 602 630 631
3 602 631 603
3 603 631 632
3 603 632 604
3 604 632 633
3 604 633 605
3 605 633 634
3 605 634 606
3 606 634 635
3 606 635 607
3 607 635 636
3 607 636 608
3 608 636 637
3 608 637 609
3 609 637 638
3 609 638 610
3 610 638 639
3 610 639 611
3 611 639 640
3 611 640 612
3 612 640 641
3 612 641 74
3 74 641 73
3 21 22 613
3 613 22 642
3 613 642 614
3 614 642 643
3 614 643 615
3 615 643 644
3 615 644 616
3 616 644 645
3 616 645 617
3 617 645 646
3 617 646 618
3 618 646 647
3 618 647 619
3 619 647 648
3 619 648 620
3 620 648 649
3 620 649 621
3 621 649 650
3 621 650 622
3 622 650 651
3 622 651 623
3 623 651 652
3 623 652 624
3 624 652 653
3 624 653 625
3 625 653 654
3 625 654 626
3 626 654 655
3 626 655 627
3 627 655 656
3 627 656 628
3 628 656 657
3 628 657 629
3 629 657 658
3 629 658 630
3 630 658 659
3 630 659 631
3 631 659 660
3 631 660 632
3 632 660 661
3 632 661 633
3 633 661 662
3 633 662 634
3 634 662 663
3 634 663 635
3 635 663 664
3 635 664 636
3 636 664 665
3 636 665 637
3 637 665 666
3 637 666 638
3 638 666 667
3 638 667 639
3 639 667 668
3 639 668 640
3 640 668 669
3 640 669 641
3 641 669 670
3 641 670 73
3 73 670 72
3 22 23 642
3 642 23 671
3 642 671 643
3 643 671 672
3 643 672 644
3 644 672 673
3 644 673 645
3 645 673 674
3 645 674 646
3 646 674 675
3 646 675 647
3 647 675 676
3 647 676 648
3 648 676 677
3 648 677 649
3 649 677 678
3 649 678 650
3 650 678 679
3 650 679 651
3 651 679 680
3 651 680 652
3 652 680 681
3 652 681 653
3 653 681 682
3 653 682 654
3 654 682 683
3 654 683 655
3 655 683 684
3 655 684 656
3 656 684 685
3 656 685 657
3 657 685 686
3 657 686 658
3 658 686 687
3 658 687 659
3 659 687 688
3 659 688 660
3 660 688 689
3 660 689 661
3 661 689 690
3 661 690 662
3 662 690 691
3 662 691 663
3 663 691 692
3 663 692 664
3 664 692 693
3 664 693 665
3 665 693 694
3 665 694 666
3 666 694 695
3 666 695 667
3 667 695 696
3 667 696 668
3 668 696 697
3 668 697 669
3 669 697 698
3 669 698 670
3 670 698 699
3 670 699 72
3 72 699 71
3 23 24 671
3 671 24 700
3 671 700 672
3 672 700 701
3 672 701 673
3 673 701 702
3 673 702 674
3 674 702 703
3 674 703 675
3 675 703 704
3 675 704 676
3 676 704 705
3 676 705 677
3 677 705 706
3 677 706 678
3 678 706 707
3 678 707 679
3 679 707 708
3 679 708 680
3 680 708 709
3 680 709 681
3 681 709 710
3 681 710 682
3 682 710 711
3 682 711 683
3 683 711 712
3 683 712 684
3 684 712 713
3 684 713 685
3 685 713 714
3 685 714 686
3 686 714 715
3 686 715 687
3 687 715 716
3 687 716 688
3 688 716 717
3 688 717 689
3 689 717 718
3 689 718 690
3 690 718 719
3 690 719 691
3 691 719 720
3 691 720 692
3 692 720 721
3 692 721 693
3 693 721 722
3 693 722 694
3 694 722 723
3 694 723 695
3 695 723 724
3 695 724 696
3 696 724 725
3 696 725 697
3 697 725 726
3 697 726 698
3 698 726 727
3 698 727 699
3 699 727 728
3 699 728 71
3 71 728 70
3 24 25 700
3 700 25 729
3 700 729 701
3 701 729 730
3 701 730 702
3 702 730 731
3 702 731 703
3 703 731 732
3 703 732 704
3 704 732 733
3 704 733 705
3 705 733 734
3 705 734 706
3 706 734 735
3 706 735 707
3 707 735 736
3 707 736 708
3 708 736 737
3 708 737 709
3 709 737 738
3 709 738 710
3 710 738 739
3 710 739 711
3 711 739 740
3 711 740 712
3 712 740 741
3 712 741 713
3 713 741 742
3 713 742 714
3 714 742 743
3 714 743 715
3 715 743 744
3 715 744 716
3 716 744 745
3 716 745 717
3 717 745 746
3 717 746 718
3 718 746 747
3 718 747 719
3 719 747 748
3 719 748 720
3 720 748 749
3 720 749 721
3 721 749 750
3 721 750 722
3 722 750 751
3 722 751 723
3 723 751 752
3 723 752 724
3 724 752 753
3 724 753 725
3 725 753 754
3 725 754 726
3 726 754 755
3 726 755 727
3 727 755 756
3 727 756 728
3 728 756 757
3 728 757 70
3 70 757 69
3 25 26 729
3 729 26 758
3 729 758 730
3 730 758 759
3 730 759 731
3 731 759 760
3 731 760 732
3 732 760 761
3 732 761 733
3 733 761 762
3 733 762 734
3 734 762 763
3 734 763 735
3 735 763 764
3 735 764 736
3 736 764 765
3 736 765 737
3 737 765 766
3 737 766 738
3 738 766 767
3 738 767 739
3 739 767 768
3 739 768 740
3 740 768 769
3 740 769 741
3 741 769 770
3 741 770 742
3 742 770 771
3 742 771 743
3 743 771 772
3 743 772 744
3 744 772 773
3 744 773 745
3 745 773 774
3 745 774 746
3 746 774 775
3 746 775 747
3 747 775 776
3 747 776 748
3 748 776 777
3 748 777 749
3 749 777 778
3 749 778 750
3 750 778 779
3 750 779 751
3 751 779 780
3 751 780 752
3 752 780 781
3 752 781 753
3 753 781 782
3 753 782 754
3 754 782 783
3 754 783 755
3 755 783 784
3 755 784 756
3 756 784 785
3 756 785 757
3 757 785 786
3 757 786 69
3 69 786 68
3 26 27 758
3 758 27 787
3 758 787 759
3 759 787 788
3 759 788 760
3 760 788 789
3 760 789 761
3 761 789 790
3 761 790 762
3 762 790 791
3 762 791 763
3 763 791 792
3 763 792 764
3 764 792 793
3 764 793 765
3 765 793 794
3 765 794 766
3 766 794 795
3 766 795 767
3 767 795 796
3 767 796 768
3 768 796 797
3 768 797 769
3 769 797 798
3 769 798 770
3 770 798 799
3 770 799 771
3 771 799 800
3 771 800 772
3 772 800 801
3 772 801 773
3 773 801 802
3 773 802 774
3 774 802 803
3 774 803 775
3 775 803 804
3 775 804 776
3 776 804 805
3 776 805 777
3 777 805 806
3 777 806 778
3 778 806 807
3 778 807 779
3 779 807 808
3 779 808 780
3 780 808 809
3 780 809 781
3 781 809 810
3 781 810 782
3 782 810 811
3 782 811 783
3 783 811 812
3 783 812 784
3 784 812 813
3 784 813 785
3 785 813 814
3 785 814 786
3 786 814 815
3 786 815 68
3 68 815 67
3 27 28 787
3 787 28 816
3 787 816 788
3 788 816 817
3 788 817 789
3 789 817 818
3 789 818 790
3 790 818 819
3 790 819 791
3 791 819 820
3 791 820 792
3 792 820 821
3 792 821 793
3 793 821 822
3 793 822 794
3 794 822 823
3 794 823 795
3 795 823 824
3 795 824 796
3 796 824 825
3 796 825 797
3 797 825 826
3 797 826 798
3 798 826 827
3 798 827 799
3 799 827 828
3 799 828 800
3 800 828 829
3 800 829 801
3 801 829 830
3 801 830 802
3 802 830 831
3 802 831 803
3 803 831 832
3 803 832 804
3 804 832 833
3 804 833 805
3 805 833 834
3 805 834 806
3 806 834 835
3 806 835 807
3 807 835 836
3 807 836 808
3 808 836 837
3 808 837 809
3 809 837 838
3 809 838 810
3 810 838 839
3 810 839 811
3 811 839 840
3 811 840 812
3 812 840 841
3 812 841 813
3 813 841 842
3 813 842 814
3 814 842 843
3 814 843 815
3 815 843 844
3 815 844 67
3 67 844 66
3 28 29 816
3 816 29 845
3 816 845 817
3 817 845 846
3 817 846 818
3 818 846 847
3 818 847 819
3 819 847 848
3 819 848 820
3 820 848 849
3 820 849 821
3 821 849 850
3 821 850 822
3 822 850 851
3 822 851 823
3 823 851 852
3 823 852 824
3 824 852 853
3 824 853 825
3 825 853 854
3 825 854 826
3 826 854 855
3 826 855 827
3 827 855 856
3 827 856 828
3 828 856 857
3 828 857 829
3 829 857 858
3 829 858 830
3 830 858 859
3 830 859 831
3 831 859 860
3 831 860 832
3 832 860 861
3 832 861 833
3 833 861 862
3 833 862 834
3 834 862 863
3 834 863 835
3 835 863 864
3 835 864 836
3 836 864 865
3 836 865 837
3 837 865 866
3 837 866 838
3 838 866 867
3 838 867 839
3 839 867 868
3 839 868 840
3 840 868 869
3 840 869 841
3 841 869 870
3 841 870 842
3 842 870 871
3 842 871 843
3 843 871 872
3 843 872 844
3 844 872 873
3 844 873 66
3 66 873 65
3 29 30 845
3 845 30 874
3 845 874 846
3 846 874 875
3 846 875 847
3 847 875 876
3 847 876 848
3 848 876 877
3 848 877 849
3 849 877 878
3 849 878 850
3 850 878 879
3 850 879 851
3 851 879 880
3 851 880 852
3 852 880 881
3 852 881 853
3 853 881 882
3 853 882 854
3 854 882 883
3 854 883 855
3 855 883 884
3 855 884 856
3 856 884 885
3 856 885 857
3 857 885 886
3 857 886 858
3 858 886 887
3 858 887 859
3 859 887 888
3 859 888 860
3 860 888 889
3 860 889 861
3 861 889 890
3 861 890 862
3 862 890 891
3 862 891 863
3 863 891 892
3 863 892 864
3 864 892 893
3 864 893 865
3 865 893 894
3 865 894 866
3 866 894 895
3 866 895 867
3 867 895 896
3 867 896 868
3 868 896 897
3 868 897 869
3 869 897 898
3 869 898 870
3 870 898 899
3 870 899 871
3 871 899 900
3 871 900 872
3 872 900 901
3 872 901 873
3 873 901 902
3 873 902 65
3 65 902 64
3 30 31 874
3 874 31 903
3 874 903 875
3 875 903 904
3 875 904 876
3 876 904 905
3 876 905 877
3 877 905 906
3 877 906 878
3 878 906 907
3 878 907 879
3 879 907 908
3 879 908 880
3 880 908 909
3 880 909 881
3 881 909 910
3 881 910 882
3 882 910 911
3 882 911 883
3 883 911 912
3 883 912 884
3 884 912 913
3 884 913 885
3 885 913 914
3 885 914 886
3 886 914 915
3 886 915 887
3 887 915 916
3 887 916 888
3 888 916 917
3 888 917 889
3 889 917 918
3 889 918 890
3 890 918 919
3 890 919 891
3 891 919 920
3 891 920 892
3 892 920 921
3 892 921 893
3 893 921 922
3 893 922 894
3 894 922 923
3 894 923 895
3 895 923 924
3 895 924 896
3 896 924 925
3 896 925 897
3 897 925 926
3 897 926 898
3 898 926 927
3 898 927 899
3 899 927 928
3 899 928 900
3 900 928 929
3 900 929 901
3 901 929 930
3 901 930 902
3 902 930 931
3 902 931 64
3 64 931 63
3 31 32 903
3 903 32 932
3 903 932 904
3 904 932 933
3 904 933 905
3 905 933 934
3 905 934 906
3 906 934 935
3 906 935 907
3 907 935 936
3 907 936 908
3 908 936 937
3 908 937 909
3 909 937 938
3 909 938 910
3 910 938 939
3 910 939 911
3 911 939 940
3 911 940 912
3 912 940 941
3 912 941 913
3 913 941 942
3 913 942 914
3 914 942 943
3 914 943 915
3 915 943 944
3 915 944 916
3 916 944 945
3 916 945 917
3 917 945 946
3 917 946 918
3 918 946 947
3 918 947 919
3 919 947 948
3 919 948 920
3 920 948 949
3 920 949 921
3 921 949 950
3 921 950 922
3 922 950 951
3 922 951 923
3 923 951 952
3 923 952 924
3 924 952 953
3 924 953 925
3 925 953 954
3 925 954 926
3 926 954 955
3 926 955 927
3 927 955 956
3 927 956 928
3 928 956 957
3 928 957 929
3 929 957 958
3 929 958 930
3 930 958 959
3 930 959 931
3 931 959 960
3 931 960 63
3 63 960 62
3 32 1 932
3 932 1 33
3 932 33 933
3 933 33 34
3 933 34 934
3 934 34 35
3 934 35 935
3 935 35 36
3 935 36 936
3 936 36 37
3 936 37 937
3 937 37 38
3 937 38 938
3 938 38 39
3 938 39 939
3 939 39 40
3 939 40 940
3 940 40 41
3 940 41 941
3 941 41 42
3 941 42 942
3 942 42 43
3 942 43 943
3 943 43 44
3 943 44 944
3 944 44 45
3 944 45 945
3 945 45 46
3 945 46 946
3 946 46 47
3 946 47 947
3 947 47 48
3 947 48 948
3 948 48 49
3 948 49 949
3 949 49 50
3 949 50 950
3 950 50 51
3 950 51 951
3 951 51 52
3 951 52 952
3 952 52 53
3 952 53 953
3 953 53 54
3 953 54 954
3 954 54 55
3 954 55 955
3 955 55 56
3 955 56 956
3 956 56 57
3 956 57 957
3 957 57 58
3 957 58 958
3 958 58 59
3 958 59 959
3 959 59 60
3 959 60 960
3 960 60 61
3 960 61 62
3 62 61 2
POINT_DATA 961
VECTORS U float
-0.000000 0.000001 0.000000
-1.894910 6.780183 0.000000
-5.676644 6.799098 0.000000
0.000000 -0.000001 0.000000
0.001111 0.108474 0.000000
0.003339 0.204489 0.000000
0.003454 0.306326 0.000000
0.006125 0.398447 0.000000
0.012833 0.487022 0.000000
0.026797 0.572346 0.000000
0.048481 0.658270 0.000000
0.077145 0.747342 0.000000
0.112636 0.843387 0.000000
0.151842 0.949960 0.000000
0.192983 1.069826 0.000000
0.232646 1.205708 0.000000
0.268013 1.359190 0.000000
0.296238 1.532047 0.000000
0.313987 1.724700 0.000000
0.319150 1.937471 0.000000
0.309094 2.170680 0.000000
0.282008 2.423820 0.000000
0.236009 2.696522 0.000000
0.170022 2.988481 0.000000
0.082328 3.299199 0.000000
-0.027941 3.627918 0.000000
-0.162382 3.974045 0.000000
-0.321636 4.337845 0.000000
-0.507276 4.716865 0.000000
-0.720476 5.111480 0.000000
-0.963002 5.519046 0.000000
-1.236860 5.937187 0.000000
-1.544483 6.360707 0.000000
-2.006302 6.771767 0.000000
-2.112239 6.768488 0.000000
-2.215216 6.767562 0.000000
-2.317032 6.768241 0.000000
-2.418530 6.770270 0.000000
-2.520452 6.773137 0.000000
-2.622569 6.777410 0.000000
-2.725574 6.782679 0.000000
-2.830071 6.788290 0.000000
-2.935614 6.794946 0.000000
-3.042724 6.802025 0.000000
-3.151726 6.809164 0.000000
-3.262525 6.816862 0.000000
-3.375207 6.824552 0.000000
-3.490206 6.832119 0.000000
-3.607751 6.839507 0.000000
-3.727879 6.846971 0.000000
-3.850563 6.853504 0.000000
-3.976144 6.859585 0.000000
-4.105031 6.865345 0.000000
-4.237419 6.870536 0.000000
-4.373533 6.873774 0.000000
-4.514219 6.876901 0.000000
-4.659672 6.878468 0.000000
-4.809500 6.876896 0.000000
-4.965353 6.872671 0.000000
-5.128521 6.864425 0.000000
-5.299094 6.850637 0.000000
-5.479831 6.830447 0.000000
-5.354792 6.257424 0.000000
-5.075552 5.796571 0.000000
-4.817779 5.383914 0.000000
-4.579595 4.990130 0.000000
-4.346898 4.623441 0.000000
-4.125231 4.271715 0.000000
-3.904921 3.938377 0.000000
-3.692097 3.623019 0.000000
-3.480939 3.321687 0.000000
-3.276316 3.040546 0.000000
-3.074664 2.771734 0.000000
-2.878221 2.522783 0.000000
-2.687912 2.286695 0.000000
-2.500324 2.066830 0.000000
-2.320114 1.863346 0.000000
-2.144502 1.671496 0.000000
-1.972991 1.495200 0.000000
-1.807450 1.332354 0.000000
-1.645597 1.182275 0.000000
-1.490487 1.043749 0.000000
-1.335345 0.916559 0.000000
-1.185379 0.803227 0.000000
-1.041565 0.700920 0.000000
-0.894707 0.603332 0.000000
-0.749062 0.516013 0.000000
-0.614537 0.450012 0.000000
-0.450808 0.367421 0.000000
-0.302482 0.292427 0.000000
-0.076376 0.157044 0.000000
0.000005 -0.000012 0.000000
0.000009 -0.000021 0.000000
0.000001 -0.000010 0.000000
-0.000006 0.000004 0.000000
-0.000001 -0.000002 0.000000
0.000006 -0.000012 0.000000
0.000003 -0.000006 0.000000
-0.000004 0.000007 0.000000
-0.000002 0.000004 0.000000
0.000003 -0.000006 0.000000
0.000002 -0.000003 0.000000
-0.000002 0.000004 0.000000
-0.000001 0.000002 0.000000
0.000002 -0.000003 0.000000
0.000000 -0.000000 0.000000
-0.000001 0.000002 0.000000
0.000001 -0.000001 0.000000
0.000001 -0.000001 0.000000
-0.000001 0.000002 0.000000
-0.000000 0.000001 0.000000
0.000001 -0.000001 0.000000
0.000000 0.000002 0.000000
-0.000000 0.000003 0.000000
0.000001 -0.000001 0.000000
0.000000 -0.000000 0.000000
-0.000004 0.000006 0.000000
0.000000 -0.000001 0.000000
0.000003 -0.000005 0.000000
-0.000001 0.000001 0.000000
0.000929 0.106689 0.000000
0.001663 0.103679 0.000000
0.002560 0.099868 0.000000
-0.000093 0.102592 0.000000
-0.001787 0.104668 0.000000
0.002786 0.096448 0.000000
0.003401 0.093522 0.000000
0.000571 0.095508 0.000000
0.003432 0.086618 0.000000
0.006233 0.076143 0.000000
0.003444 0.074159 0.000000
0.003393 0.066958 0.000000
0.006791 0.052854 0.000000
0.006204 0.044768 0.000000
0.004224 0.038747 0.000000
0.005873 0.026002 0.000000
0.007152 0.013472 0.000000
0.005380 0.006288 0.000000
0.004782 -0.002702 0.000000
0.006379 -0.015229 0.000000
0.005831 -0.023549 0.000000
0.003011 -0.027755 0.000000
0.002347 -0.035737 0.000000
0.001746 -0.042846 0.000000
-0.004630 -0.035181 0.000000
-0.014001 -0.014361 0.000000
-0.016059 0.004729 0.000000
-0.021201 0.033584 0.000000
-0.033455 0.084130 0.000000
0.003888 0.205468 0.000000
0.000945 0.206773 0.000000
0.000355 0.203407 0.000000
0.002069 0.199861 0.000000
0.006601 0.196556 0.000000
0.008716 0.192067 0.000000
0.010772 0.183411 0.000000
0.013028 0.173952 0.000000
0.014538 0.163337 0.000000
0.016275 0.149351 0.000000
0.018551 0.134872 0.000000
0.019688 0.121388 0.000000
0.020544 0.105196 0.000000
0.021895 0.086895 0.000000
0.022117 0.070423 0.000000
0.021586 0.054248 0.000000
0.021620 0.036654 0.000000
0.020272 0.021508 0.000000
0.017469 0.009323 0.000000
0.016739 -0.003906 0.000000
0.017067 -0.016032 0.000000
0.012350 -0.021666 0.000000
0.000818 -0.021083 0.000000
-0.015518 -0.014460 0.000000
-0.030842 0.000106 0.000000
-0.044738 0.025039 0.000000
-0.055243 0.055980 0.000000
-0.083710 0.105915 0.000000
-0.131395 0.171503 0.000000
0.003472 0.303112 0.000000
0.004606 0.301671 0.000000
0.007355 0.297787 0.000000
0.012408 0.292008 0.000000
0.017651 0.284658 0.000000
0.021888 0.275628 0.000000
0.025867 0.263226 0.000000
0.030692 0.248212 0.000000
0.035059 0.232365 0.000000
0.038039 0.214778 0.000000
0.040341 0.194615 0.000000
0.042422 0.173881 0.000000
0.043702 0.153709 0.000000
0.044235 0.132591 0.000000
0.044468 0.110630 0.000000
0.043618 0.090190 0.000000
0.040542 0.071623 0.000000
0.035945 0.053687 0.000000
0.031679 0.038112 0.000000
0.027594 0.027631 0.000000
0.020839 0.021712 0.000000
0.006752 0.019327 0.000000
-0.014691 0.021535 0.000000
-0.040421 0.032022 0.000000
-0.064004 0.050731 0.000000
-0.091160 0.084350 0.000000
-0.129256 0.135703 0.000000
-0.192701 0.209747 0.000000
-0.301450 0.302930 0.000000
0.008614 0.396270 0.000000
0.013961 0.391929 0.000000
0.020790 0.386017 0.000000
0.028320 0.377911 0.000000
0.035861 0.366898 0.000000
0.043229 0.353219 0.000000
0.050046 0.337426 0.000000
0.056485 0.319328 0.000000
0.062044 0.299022 0.000000
0.065971 0.277078 0.000000
0.068497 0.254018 0.000000
0.070484 0.230375 0.000000
0.071525 0.206839 0.000000
0.070889 0.183705 0.000000
0.068893 0.161074 0.000000
0.065553 0.139470 0.000000
0.059449 0.119757 0.000000
0.050264 0.102833 0.000000
0.040256 0.089654 0.000000
0.029505 0.081922 0.000000
0.014067 0.079741 0.000000
-0.010826 0.083022 0.000000
-0.042960 0.090641 0.000000
-0.078352 0.105082 0.000000
-0.116621 0.129971 0.000000
-0.164748 0.168731 0.000000
-0.231586 0.225261 0.000000
-0.324853 0.293820 0.000000
-0.449092 0.371288 0.000000
0.020382 0.483889 0.000000
0.030083 0.478139 0.000000
0.041084 0.470066 0.000000
0.052053 0.459330 0.000000
0.062276 0.445392 0.000000
0.071796 0.428580 0.000000
0.080555 0.409816 0.000000
0.088009 0.389297 0.000000
0.093770 0.366725 0.000000
0.097987 0.342560 0.000000
0.100770 0.317858 0.000000
0.101542 0.293174 0.000000
0.099946 0.268690 0.000000
0.096552 0.245107 0.000000
0.091952 0.223224 0.000000
0.084822 0.203265 0.000000
0.073608 0.185173 0.000000
0.058241 0.170180 0.000000
0.040577 0.159887 0.000000
0.020010 0.155759 0.000000
-0.006405 0.157542 0.000000
-0.041305 0.164690 0.000000
-0.083477 0.177773 0.000000
-0.131630 0.197943 0.000000
-0.188282 0.229043 0.000000
-0.258951 0.271664 0.000000
-0.348731 0.326333 0.000000
-0.461993 0.388678 0.000000
-0.598868 0.452515 0.000000
0.039794 0.568795 0.000000
0.054067 0.562111 0.000000
0.068586 0.552330 0.000000
0.082253 0.539201 0.000000
0.094605 0.523120 0.000000
0.105745 0.504712 0.000000
0.115420 0.484451 0.000000
0.122990 0.462471 0.000000
0.128330 0.438980 0.000000
0.131838 0.414561 0.000000
0.133133 0.389885 0.000000
0.131147 0.365426 0.000000
0.125995 0.341614 0.000000
0.118923 0.319343 0.000000
0.110100 0.299407 0.000000
0.097542 0.282135 0.000000
0.079537 0.267327 0.000000
0.056399 0.255677 0.000000
0.029665 0.248762 0.000000
-0.001199 0.247635 0.000000
-0.038766 0.252573 0.000000
-0.084685 0.263241 0.000000
-0.139396 0.281092 0.000000
-0.203742 0.307167 0.000000
-0.280022 0.343091 0.000000
-0.370372 0.388306 0.000000
-0.477115 0.439737 0.000000
-0.600592 0.494359 0.000000
-0.741649 0.548693 0.000000
0.066414 0.653976 0.000000
0.084606 0.646485 0.000000
0.101803 0.635565 0.000000
0.117427 0.621302 0.000000
0.131344 0.604377 0.000000
0.143193 0.585359 0.000000
0.152266 0.564510 0.000000
0.158474 0.542217 0.000000
0.162422 0.519160 0.000000
0.164077 0.495932 0.000000
0.162403 0.472703 0.000000
0.156540 0.449674 0.000000
0.147034 0.427597 0.000000
0.134736 0.407701 0.000000
0.119547 0.390789 0.000000
0.099887 0.376780 0.000000
0.074170 0.365523 0.000000
0.042742 0.357696 0.000000
0.006267 0.354596 0.000000
-0.035967 0.356894 0.000000
-0.085851 0.365086 0.000000
-0.144443 0.379234 0.000000
-0.212929 0.399324 0.000000
-0.292469 0.426103 0.000000
-0.383669 0.459455 0.000000
-0.487048 0.499517 0.000000
-0.604253 0.544840 0.000000
-0.735790 0.594632 0.000000
-0.881395 0.647198 0.000000
0.099552 0.742767 0.000000
0.120468 0.734980 0.000000
0.139257 0.723611 0.000000
0.155837 0.709165 0.000000
0.169970 0.692308 0.000000
0.180849 0.673523 0.000000
0.187992 0.653167 0.000000
0.192011 0.631892 0.000000
0.193408 0.610376 0.000000
0.191650 0.589063 0.000000
0.185674 0.568040 0.000000
0.174939 0.547533 0.000000
0.159764 0.528297 0.000000
0.140960 0.511469 0.000000
0.118440 0.497649 0.000000
0.090487 0.486725 0.000000
0.056099 0.478942 0.000000
0.015498 0.474828 0.000000
-0.031462 0.475156 0.000000
-0.085662 0.480546 0.000000
-0.147460 0.491270 0.000000
-0.217906 0.507032 0.000000
-0.298693 0.527404 0.000000
-0.390335 0.552581 0.000000
-0.493140 0.582832 0.000000
-0.607846 0.618327 0.000000
-0.735057 0.659015 0.000000
-0.874618 0.704015 0.000000
-1.025971 0.752382 0.000000
0.137438 0.838942 0.000000
0.159289 0.830920 0.000000
0.178304 0.819652 0.000000
0.194671 0.805941 0.000000
0.207500 0.790134 0.000000
0.215991 0.772513 0.000000
0.220291 0.753533 0.000000
0.221008 0.733993 0.000000
0.218240 0.714624 0.000000
0.211613 0.695870 0.000000
0.200359 0.677745 0.000000
0.183703 0.660350 0.000000
0.162025 0.644387 0.000000
0.136175 0.630779 0.000000
0.105195 0.619987 0.000000
0.068023 0.612297 0.000000
0.024558 0.607772 0.000000
-0.025517 0.606479 0.000000
-0.083172 0.608897 0.000000
-0.148282 0.615891 0.000000
-0.221138 0.627778 0.000000
-0.303302 0.644562 0.000000
-0.395808 0.666008 0.000000
-0.498567 0.691714 0.000000
-0.612265 0.721554 0.000000
-0.736939 0.754917 0.000000
-0.872225 0.791608 0.000000
-1.017043 0.830198 0.000000
-1.172259 0.871026 0.000000
0.177500 0.945642 0.000000
0.198722 0.937743 0.000000
0.216691 0.927312 0.000000
0.231171 0.914932 0.000000
0.241001 0.900602 0.000000
0.246019 0.884674 0.000000
0.246451 0.867698 0.000000
0.242526 0.850509 0.000000
0.234431 0.833786 0.000000
0.222063 0.817890 0.000000
0.204231 0.802722 0.000000
0.180659 0.788541 0.000000
0.152133 0.776009 0.000000
0.118194 0.765624 0.000000
0.077967 0.757939 0.000000
0.031807 0.753169 0.000000
-0.020623 0.751249 0.000000
-0.080745 0.752275 0.000000
-0.148772 0.756678 0.000000
-0.224182 0.764918 0.000000
-0.308083 0.777208 0.000000
-0.401107 0.793437 0.000000
-0.503267 0.813298 0.000000
-0.615046 0.836634 0.000000
-0.736884 0.863140 0.000000
-0.868584 0.893088 0.000000
-1.008775 0.925901 0.000000
-1.159221 0.962008 0.000000
-1.319825 1.001390 0.000000
0.217408 1.066025 0.000000
0.236363 1.058650 0.000000
0.251538 1.049319 0.000000
0.262239 1.038364 0.000000
0.268012 1.025868 0.000000
0.268612 1.012110 0.000000
0.263901 0.997581 0.000000
0.254230 0.983017 0.000000
0.240142 0.969056 0.000000
0.220727 0.955886 0.000000
0.195409 0.943610 0.000000
0.164878 0.932614 0.000000
0.128635 0.923098 0.000000
0.085689 0.915538 0.000000
0.036696 0.910405 0.000000
-0.018138 0.907991 0.000000
-0.080286 0.908353 0.000000
-0.150321 0.911465 0.000000
-0.227607 0.917373 0.000000
-0.312756 0.926276 0.000000
-0.406263 0.938169 0.000000
-0.508036 0.953015 0.000000
-0.618481 0.970894 0.000000
-0.738309 0.991709 0.000000
-0.867902 1.015783 0.000000
-1.005677 1.043015 0.000000
-1.152354 1.073366 0.000000
-1.308993 1.107244 0.000000
-1.473453 1.143814 0.000000
0.253910 1.202330 0.000000
0.269348 1.195797 0.000000
0.280113 1.187728 0.000000
0.285863 1.178375 0.000000
0.286398 1.167884 0.000000
0.281058 1.156386 0.000000
0.270166 1.144393 0.000000
0.254450 1.132575 0.000000
0.233277 1.121295 0.000000
0.206038 1.110753 0.000000
0.173506 1.101333 0.000000
0.135324 1.093105 0.000000
0.090228 1.086240 0.000000
0.038762 1.081035 0.000000
-0.018467 1.077924 0.000000
-0.082480 1.077232 0.000000
-0.154026 1.078804 0.000000
-0.232562 1.082652 0.000000
-0.318558 1.089121 0.000000
-0.412565 1.098187 0.000000
-0.514396 1.109976 0.000000
-0.624292 1.124553 0.000000
-0.742582 1.141590 0.000000
-0.870168 1.161191 0.000000
-1.005650 1.182985 0.000000
-1.148954 1.206966 0.000000
-1.301667 1.233894 0.000000
-1.462176 1.263037 0.000000
-1.630314 1.295547 0.000000
0.284598 1.356358 0.000000
0.294897 1.350917 0.000000
0.299951 1.344184 0.000000
0.299612 1.336430 0.000000
0.293486 1.327827 0.000000
0.281472 1.318489 0.000000
0.264361 1.308982 0.000000
0.241394 1.299604 0.000000
0.212151 1.290657 0.000000
0.177426 1.282583 0.000000
0.137261 1.275624 0.000000
0.090373 1.269811 0.000000
0.036970 1.265137 0.000000
-0.022432 1.261917 0.000000
-0.088224 1.260651 0.000000
-0.161163 1.261151 0.000000
-0.240899 1.263447 0.000000
-0.327645 1.268010 0.000000
-0.422023 1.274612 0.000000
-0.523944 1.283419 0.000000
-0.633325 1.294530 0.000000
-0.750229 1.307647 0.000000
-0.875605 1.323155 0.000000
-1.008561 1.340639 0.000000
-1.148839 1.359992 0.000000
-1.297963 1.382170 0.000000
-1.454965 1.406337 0.000000
-1.619830 1.433020 0.000000
-1.793128 1.462670 0.000000
0.306216 1.529582 0.000000
0.310309 1.525169 0.000000
0.308767 1.519677 0.000000
0.301223 1.513354 0.000000
0.287844 1.506382 0.000000
0.269069 1.499076 0.000000
0.244243 1.491701 0.000000
0.213029 1.484397 0.000000
0.176237 1.477568 0.000000
0.133978 1.471535 0.000000
0.085454 1.466514 0.000000
0.030433 1.462331 0.000000
-0.030895 1.459233 0.000000
-0.098341 1.457819 0.000000
-0.172526 1.457812 0.000000
-0.253539 1.459138 0.000000
-0.341042 1.462400 0.000000
-0.435681 1.467142 0.000000
-0.537497 1.473572 0.000000
-0.646209 1.481884 0.000000
-0.761973 1.491655 0.000000
-0.885709 1.503675 0.000000
-1.016527 1.517600 0.000000
-1.154479 1.533030 0.000000
-1.300642 1.551225 0.000000
-1.453955 1.571068 0.000000
-1.614859 1.592631 0.000000
-1.783816 1.616808 0.000000
-1.959598 1.642893 0.000000
0.316822 1.722615 0.000000
0.313618 1.719142 0.000000
0.304208 1.714707 0.000000
0.289003 1.709623 0.000000
0.268351 1.704234 0.000000
0.241503 1.698649 0.000000
0.208476 1.692972 0.000000
0.169678 1.687388 0.000000
0.125167 1.682306 0.000000
0.074769 1.678034 0.000000
0.018111 1.674366 0.000000
-0.045117 1.671391 0.000000
-0.114037 1.669812 0.000000
-0.189150 1.669296 0.000000
-0.271153 1.669750 0.000000
-0.359246 1.671846 0.000000
-0.453976 1.675046 0.000000
-0.555670 1.679636 0.000000
-0.663662 1.685906 0.000000
-0.778328 1.693132 0.000000
-0.900759 1.702251 0.000000
-1.029510 1.712996 0.000000
-1.165232 1.724751 0.000000
-1.308775 1.738848 0.000000
-1.458662 1.754553 0.000000
-1.615757 1.771629 0.000000
-1.781041 1.791402 0.000000
-1.952702 1.812895 0.000000
-2.132566 1.836886 0.000000
0.313855 1.935868 0.000000
0.302174 1.933008 0.000000
0.284805 1.929424 0.000000
0.261921 1.925482 0.000000
0.232834 1.921236 0.000000
0.197875 1.916820 0.000000
0.157015 1.912346 0.000000
0.110164 1.908171 0.000000
0.057867 1.904661 0.000000
-0.000444 1.901521 0.000000
-0.065447 1.898779 0.000000
-0.135801 1.897067 0.000000
-0.211904 1.896160 0.000000
-0.294885 1.895979 0.000000
-0.383612 1.897206 0.000000
-0.478590 1.899304 0.000000
-0.580380 1.902709 0.000000
-0.687916 1.907709 0.000000
-0.801725 1.913501 0.000000
-0.923055 1.920804 0.000000
-1.049940 1.929463 0.000000
-1.183373 1.938682 0.000000
-1.324379 1.949528 0.000000
-1.471218 1.961702 0.000000
-1.624702 1.974604 0.000000
-1.786329 1.989735 0.000000
-1.953833 2.006099 0.000000
-2.128914 2.024019 0.000000
-2.311526 2.044350 0.000000
0.295028 2.169095 0.000000
0.274995 2.166652 0.000000
0.249355 2.163831 0.000000
0.217683 2.160660 0.000000
0.180516 2.157266 0.000000
0.137369 2.153722 0.000000
0.088267 2.150263 0.000000
0.034150 2.147233 0.000000
-0.025906 2.144417 0.000000
-0.092605 2.141900 0.000000
-0.164424 2.140185 0.000000
-0.241850 2.139148 0.000000
-0.325833 2.138747 0.000000
-0.415192 2.139377 0.000000
-0.510492 2.140523 0.000000
-0.612272 2.142568 0.000000
-0.719340 2.145763 0.000000
-0.832301 2.149593 0.000000
-0.952270 2.154630 0.000000
-1.077347 2.160928 0.000000
-1.208523 2.167989 0.000000
-1.346819 2.176417 0.000000
-1.490735 2.186147 0.000000
-1.640833 2.196493 0.000000
-1.798575 2.208563 0.000000
-1.962166 2.221644 0.000000
-2.132407 2.235586 0.000000
-2.310456 2.251179 0.000000
-2.494882 2.268114 0.000000
0.259037 2.422290 0.000000
0.230355 2.420217 0.000000
0.195979 2.417710 0.000000
0.156240 2.414931 0.000000
0.110460 2.411946 0.000000
0.059036 2.408960 0.000000
0.002851 2.406257 0.000000
-0.059315 2.403769 0.000000
-0.127668 2.401497 0.000000
-0.200936 2.399739 0.000000
-0.279769 2.398466 0.000000
-0.364505 2.397727 0.000000
-0.454372 2.397739 0.000000
-0.550007 2.398246 0.000000
-0.651607 2.399502 0.000000
-0.758289 2.401597 0.000000
-0.870709 2.404362 0.000000
-0.989334 2.407983 0.000000
-1.113065 2.412424 0.000000
-1.242688 2.417630 0.000000
-1.378594 2.423778 0.000000
-1.519901 2.430959 0.000000
-1.667027 2.438725 0.000000
-1.820807 2.447656 0.000000
-1.980480 2.457466 0.000000
-2.146095 2.468057 0.000000
-2.319022 2.479981 0.000000
-2.498394 2.493031 0.000000
-2.684777 2.507158 0.000000
0.204145 2.694903 0.000000
0.166850 2.692861 0.000000
0.124181 2.690595 0.000000
0.075639 2.688053 0.000000
0.021875 2.685351 0.000000
-0.036731 2.682802 0.000000
-0.101221 2.680406 0.000000
-0.171079 2.678093 0.000000
-0.245972 2.676045 0.000000
-0.326321 2.674423 0.000000
-0.411961 2.673281 0.000000
-0.502739 2.672795 0.000000
-0.599081 2.672930 0.000000
-0.700656 2.673698 0.000000
-0.807314 2.675148 0.000000
-0.919344 2.677399 0.000000
-1.036601 2.680290 0.000000
-1.158929 2.683673 0.000000
-1.287008 2.687691 0.000000
-1.420390 2.692227 0.000000
-1.558945 2.697364 0.000000
-1.703162 2.702950 0.000000
-1.853021 2.709136 0.000000
-2.008854 2.715891 0.000000
-2.170324 2.723396 0.000000
-2.338143 2.731563 0.000000
-2.512340 2.740379 0.000000
-2.692931 2.750000 0.000000
-2.880368 2.760578 0.000000
0.129198 2.986464 0.000000
0.083267 2.984334 0.000000
0.031950 2.981925 0.000000
-0.024283 2.979319 0.000000
-0.085717 2.976846 0.000000
-0.152405 2.974471 0.000000
-0.223935 2.972101 0.000000
-0.300702 2.969978 0.000000
-0.382646 2.968221 0.000000
-0.469315 2.966755 0.000000
-0.561132 2.965803 0.000000
-0.657948 2.965291 0.000000
-0.759504 2.965167 0.000000
-0.866160 2.965445 0.000000
-0.977727 2.966532 0.000000
-1.093888 2.968135 0.000000
-1.214860 2.970280 0.000000
-1.341297 2.973120 0.000000
-1.472096 2.976391 0.000000
-1.608066 2.980191 0.000000
-1.749304 2.984515 0.000000
-1.895498 2.989193 0.000000
-2.047473 2.994203 0.000000
-2.204842 2.999733 0.000000
-2.367808 3.005339 0.000000
-2.536660 3.011328 0.000000
-2.711795 3.017697 0.000000
-2.892975 3.024623 0.000000
-3.080951 3.032077 0.000000
0.032949 3.296780 0.000000
-0.021269 3.294177 0.000000
-0.080468 3.291371 0.000000
-0.144717 3.288667 0.000000
-0.213529 3.286047 0.000000
-0.287140 3.283452 0.000000
-0.366060 3.281184 0.000000
-0.449599 3.279121 0.000000
-0.537519 3.277347 0.000000
-0.630335 3.276031 0.000000
-0.727579 3.275074 0.000000
-0.829468 3.274581 0.000000
-0.936101 3.274442 0.000000
-1.047312 3.274959 0.000000
-1.162730 3.275892 0.000000
-1.282729 3.277367 0.000000
-1.407540 3.279346 0.000000
-1.536255 3.281588 0.000000
-1.670117 3.284159 0.000000
-1.808518 3.287194 0.000000
-1.951430 3.290296 0.000000
-2.099325 3.293575 0.000000
-2.252274 3.296986 0.000000
-2.410367 3.300234 0.000000
-2.573907 3.303677 0.000000
-2.743473 3.307141 0.000000
-2.918545 3.310755 0.000000
-3.099816 3.314366 0.000000
-3.287309 3.318020 0.000000
-0.085544 3.625144 0.000000
-0.148093 3.622029 0.000000
-0.215090 3.618884 0.000000
-0.286286 3.615806 0.000000
-0.362281 3.612809 0.000000
-0.443240 3.609911 0.000000
-0.528375 3.607237 0.000000
-0.617775 3.605086 0.000000
-0.711706 3.603386 0.000000
-0.809944 3.602227 0.000000
-0.912445 3.601583 0.000000
-1.019209 3.601322 0.000000
-1.130153 3.601625 0.000000
-1.244906 3.602252 0.000000
-1.363838 3.603275 0.000000
-1.486733 3.604631 0.000000
-1.613492 3.606096 0.000000
-1.744814 3.607718 0.000000
-1.880170 3.609497 0.000000
-2.019564 3.611128 0.000000
-2.163513 3.612884 0.000000
-2.311874 3.614512 0.000000
-2.465136 3.615937 0.000000
-2.623622 3.617364 0.000000
-2.787076 3.618608 0.000000
-2.956125 3.619512 0.000000
-3.130970 3.620405 0.000000
-3.311678 3.621184 0.000000
-3.498666 3.622023 0.000000
-0.227748 3.970572 0.000000
-0.297667 3.966979 0.000000
-0.371728 3.963545 0.000000
-0.450315 3.960244 0.000000
-0.533355 3.956827 0.000000
-0.620354 3.953839 0.000000
-0.711441 3.951072 0.000000
-0.806612 3.948595 0.000000
-0.905927 3.946656 0.000000
-1.008838 3.945206 0.000000
-1.115829 3.944197 0.000000
-1.226338 3.943809 0.000000
-1.340524 3.943969 0.000000
-1.458353 3.944535 0.000000
-1.579516 3.945687 0.000000
-1.704419 3.947156 0.000000
-1.832991 3.948710 0.000000
-1.965189 3.950302 0.000000
-2.101115 3.951677 0.000000
-2.241369 3.952922 0.000000
-2.385261 3.953771 0.000000
-2.534062 3.953944 0.000000
-2.687376 3.953710 0.000000
-2.845060 3.952870 0.000000
-3.008145 3.951325 0.000000
-3.176050 3.949573 0.000000
-3.349842 3.947219 0.000000
-3.529014 3.944468 0.000000
-3.714296 3.941416 0.000000
-0.394791 4.333167 0.000000
-0.471650 4.328948 0.000000
-0.552706 4.324701 0.000000
-0.637832 4.320663 0.000000
-0.726844 4.317210 0.000000
-0.819672 4.313992 0.000000
-0.916336 4.311258 0.000000
-1.016519 4.309080 0.000000
-1.120233 4.307434 0.000000
-1.227495 4.306377 0.000000
-1.337942 4.305935 0.000000
-1.451814 4.305983 0.000000
-1.568716 4.306379 0.000000
-1.688545 4.307340 0.000000
-1.811641 4.308426 0.000000
-1.937604 4.309547 0.000000
-2.066686 4.310566 0.000000
-2.199109 4.311352 0.000000
-2.334922 4.311909 0.000000
-2.474119 4.311872 0.000000
-2.617514 4.311089 0.000000
-2.764962 4.309643 0.000000
-2.916753 4.307333 0.000000
-3.073541 4.304122 0.000000
-3.235051 4.300227 0.000000
-3.402092 4.295482 0.000000
-3.574202 4.290040 0.000000
-3.752150 4.284347 0.000000
-3.935479 4.278459 0.000000
-0.587136 4.711769 0.000000
-0.671002 4.706512 0.000000
-0.758710 4.701709 0.000000
-0.849973 4.697286 0.000000
-0.944722 4.693323 0.000000
-1.043032 4.690126 0.000000
-1.144752 4.687656 0.000000
-1.249453 4.685723 0.000000
-1.357087 4.684653 0.000000
-1.467603 4.684345 0.000000
-1.580695 4.684579 0.000000
-1.696188 4.685310 0.000000
-1.814184 4.686512 0.000000
-1.934735 4.687743 0.000000
-2.057681 4.689162 0.000000
-2.183488 4.690323 0.000000
-2.312070 4.691065 0.000000
-2.443354 4.691310 0.000000
-2.577911 4.690831 0.000000
-2.715923 4.689417 0.000000
-2.857669 4.687115 0.000000
-3.003477 4.683732 0.000000
-3.153670 4.679247 0.000000
-3.308607 4.673732 0.000000
-3.468275 4.667136 0.000000
-3.633170 4.659393 0.000000
-3.803732 4.650985 0.000000
-3.979569 4.641741 0.000000
-4.160742 4.632050 0.000000
-0.807139 5.105119 0.000000
-0.897538 5.099223 0.000000
-0.991163 5.093813 0.000000
-1.087892 5.088873 0.000000
-1.187860 5.084715 0.000000
-1.290768 5.081465 0.000000
-1.396399 5.079131 0.000000
-1.504580 5.077872 0.000000
-1.615036 5.077544 0.000000
-1.727438 5.078104 0.000000
-1.841707 5.079533 0.000000
-1.958003 5.081402 0.000000
-2.076035 5.083559 0.000000
-2.195940 5.085856 0.000000
-2.317998 5.087723 0.000000
-2.442209 5.089051 0.000000
-2.568911 5.089740 0.000000
-2.698340 5.089476 0.000000
-2.831033 5.088143 0.000000
-2.967063 5.085653 0.000000
-3.106686 5.081718 0.000000
-3.250415 5.076506 0.000000
-3.398716 5.069796 0.000000
-3.551020 5.061664 0.000000
-3.708946 5.052080 0.000000
-3.871777 5.041425 0.000000
-4.040033 5.029407 0.000000
-4.214043 5.016870 0.000000
-4.394275 5.003923 0.000000
-1.056093 5.511447 0.000000
-1.152419 5.504926 0.000000
-1.251735 5.499082 0.000000
-1.353804 5.494242 0.000000
-1.458463 5.490680 0.000000
-1.565394 5.488466 0.000000
-1.674186 5.487490 0.000000
-1.784580 5.487705 0.000000
-1.896041 5.489129 0.000000
-2.008650 5.491315 0.000000
-2.122268 5.493892 0.000000
-2.236907 5.496854 0.000000
-2.352986 5.499648 0.000000
-2.470653 5.502093 0.000000
-2.590189 5.504151 0.000000
-2.711801 5.505324 0.000000
-2.835864 5.505534 0.000000
-2.962912 5.504803 0.000000
-3.092702 5.502665 0.000000
-3.225861 5.499180 0.000000
-3.363178 5.494303 0.000000
-3.504005 5.487685 0.000000
-3.649371 5.479420 0.000000
-3.799749 5.469646 0.000000
-3.954597 5.457916 0.000000
-4.115455 5.444680 0.000000
-4.282135 5.430146 0.000000
-4.454545 5.414431 0.000000
-4.632750 5.398632 0.000000
-1.336059 5.928365 0.000000
-1.438295 5.921009 0.000000
-1.542998 5.914901 0.000000
-1.649790 5.910690 0.000000
-1.757914 5.908484 0.000000
-1.866710 5.908302 0.000000
-1.975871 5.909844 0.000000
-2.085477 5.912569 0.000000
-2.195489 5.916128 0.000000
-2.305553 5.920057 0.000000
-2.416255 5.923810 0.000000
-2.528257 5.927603 0.000000
-2.641477 5.930971 0.000000
-2.756338 5.933646 0.000000
-2.873522 5.935754 0.000000
-2.992783 5.937389 0.000000
-3.114363 5.937773 0.000000
-3.239082 5.937325 0.000000
-3.366874 5.935796 0.000000
-3.497829 5.932655 0.000000
-3.632611 5.927960 0.000000
-3.771519 5.921801 0.000000
-3.914172 5.913320 0.000000
-4.062045 5.902836 0.000000
-4.215170 5.890257 0.000000
-4.373504 5.874976 0.000000
-4.537901 5.857633 0.000000
-4.709862 5.838052 0.000000
-4.889484 5.817247 0.000000
-1.650666 6.350446 0.000000
-1.759197 6.343304 0.000000
-1.868780 6.339408 0.000000
-1.977521 6.338453 0.000000
-2.084705 6.339593 0.000000
-2.190620 6.342154 0.000000
-2.295972 6.345474 0.000000
-2.401206 6.349426 0.000000
-2.506905 6.353822 0.000000
-2.613520 6.358489 0.000000
-2.721270 6.363071 0.000000
-2.830639 6.367431 0.000000
-2.941935 6.371830 0.000000
-3.054976 6.376127 0.000000
-3.170097 6.379664 0.000000
-3.287868 6.382885 0.000000
-3.408054 6.385482 0.000000
-3.530975 6.386903 0.000000
-3.657190 6.387626 0.000000
-3.786277 6.387550 0.000000
-3.918500 6.385583 0.000000
-4.054922 6.381860 0.000000
-4.195389 6.376866 0.000000
-4.340028 6.368915 0.000000
-4.489969 6.358565 0.000000
-4.646234 6.345683 0.000000
-4.809050 6.329453 0.000000
-4.979576 6.309151 0.000000
-5.160471 6.285271 0.000000
TENSORS STRESS float
166.351556 5.753343 0.000000
5.753343 166.285711 0.000000
0.000000 0.000000 0.000000
-23930.583829 5.339084 0.000000
5.339084 -23928.132264 0.000000
0.000000 0.000000 0.000000
-61302.104888 -0.400056 0.000000
-0.400056 -61299.205319 0.000000
0.000000 0.000000 0.000000
-4767.204160 7.979256 0.000000
7.979256 -4764.999972 0.000000
0.000000 0.000000 0.000000
-32.120141 5.184788 0.000000
5.184788 -32.484735 0.000000
0.000000 0.000000 0.000000
8.751163 5.034646 0.000000
5.034646 8.741846 0.000000
0.000000 0.000000 0.000000
-2034.368130 5.254438 0.000000
5.254438 -2034.913172 0.000000
0.000000 0.000000 0.000000
-194.540237 4.810575 0.000000
4.810575 -195.170774 0.000000
0.000000 0.000000 0.000000
374.081049 4.822181 0.000000
4.822181 373.509964 0.000000
0.000000 0.000000 0.000000
452.207668 5.146278 0.000000
5.146278 451.544648 0.000000
0.000000 0.000000 0.000000
339.650465 5.648075 0.000000
5.648075 338.823919 0.000000
0.000000 0.000000 0.000000
247.237643 6.299862 0.000000
6.299862 246.318336 0.000000
0.000000 0.000000 0.000000
428.329044 6.996219 0.000000
6.996219 427.397785 0.000000
0.000000 0.000000 0.000000
447.398990 7.754242 0.000000
7.754242 446.571579 0.000000
0.000000 0.000000 0.000000
637.019934 8.490897 0.000000
8.490897 636.343052 0.000000
0.000000 0.000000 0.000000
727.597598 9.151297 0.000000
9.151297 727.010519 0.000000
0.000000 0.000000 0.000000
753.811476 9.769477 0.000000
9.769477 753.278327 0.000000
0.000000 0.000000 0.000000
676.156571 10.260949 0.000000
10.260949 675.594631 0.000000
0.000000 0.000000 0.000000
322.472367 10.709495 0.000000
10.709495 321.999369 0.000000
0.000000 0.000000 0.000000
-126.896366 11.060192 0.000000
11.060192 -127.125597 0.000000
0.000000 0.000000 0.000000
-790.244524 11.361518 0.000000
11.361518 -790.216660 0.000000
0.000000 0.000000 0.000000
-1489.346527 11.481399 0.000000
11.481399 -1489.204752 0.000000
0.000000 0.000000 0.000000
-2378.374562 11.603453 0.000000
11.603453 -2377.917899 0.000000
0.000000 0.000000 0.000000
-3398.403331 11.596456 0.000000
11.596456 -3397.808965 0.000000
0.000000 0.000000 0.000000
-4779.560607 11.597009 0.000000
11.597009 -4778.605279 0.000000
0.000000 0.000000 0.000000
-6047.542957 11.525878 0.000000
11.525878 -6046.121205 0.000000
0.000000 0.000000 0.000000
-7659.662171 11.412457 0.000000
11.412457 -7657.960871 0.000000
0.000000 0.000000 0.000000
-9719.740897 11.168342 0.000000
11.168342 -9718.144666 0.000000
0.000000 0.000000 0.000000
-11015.353591 10.816244 0.000000
10.816244 -11013.139932 0.000000
0.000000 0.000000 0.000000
-13703.398750 10.513090 0.000000
10.513090 -13701.116834 0.000000
0.000000 0.000000 0.000000
-16055.187380 9.895417 0.000000
9.895417 -16052.860780 0.000000
0.000000 0.000000 0.000000
-18606.937258 9.106187 0.000000
9.106187 -18604.358644 0.000000
0.000000 0.000000 0.000000
-21371.507988 7.720070 0.000000
7.720070 -21369.155126 0.000000
0.000000 0.000000 0.000000
-22536.785131 5.530943 0.000000
5.530943 -22530.959692 0.000000
0.000000 0.000000 0.000000
-21373.466464 5.909724 0.000000
5.909724 -21365.993816 0.000000
0.000000 0.000000 0.000000
-20804.436545 5.977759 0.000000
5.977759 -20796.192178 0.000000
0.000000 0.000000 0.000000
-20264.515824 5.922032 0.000000
5.922032 -20255.534386 0.000000
0.000000 0.000000 0.000000
-20173.498335 5.812881 0.000000
5.812881 -20163.965697 0.000000
0.000000 0.000000 0.000000
-20166.944595 5.668773 0.000000
5.668773 -20156.771893 0.000000
0.000000 0.000000 0.000000
-19817.375519 5.594299 0.000000
5.594299 -19806.482799 0.000000
0.000000 0.000000 0.000000
-20185.228642 5.430838 0.000000
5.430838 -20173.898669 0.000000
0.000000 0.000000 0.000000
-20532.087060 5.301226 0.000000
5.301226 -20520.218379 0.000000
0.000000 0.000000 0.000000
-20517.717308 5.263323 0.000000
5.263323 -20505.278937 0.000000
0.000000 0.000000 0.000000
-21237.349673 5.158940 0.000000
5.158940 -21224.650593 0.000000
0.000000 0.000000 0.000000
-21598.810568 5.043110 0.000000
5.043110 -21585.643262 0.000000
0.000000 0.000000 0.000000
-22234.152724 5.043935 0.000000
5.043935 -22220.645799 0.000000
0.000000 0.000000 0.000000
-22878.711708 4.982746 0.000000
4.982746 -22864.958532 0.000000
0.000000 0.000000 0.000000
-23707.344669 4.906020 0.000000
4.906020 -23693.362690 0.000000
0.000000 0.000000 0.000000
-24429.446779 4.878678 0.000000
4.878678 -24415.166542 0.000000
0.000000 0.000000 0.000000
-25509.263198 4.867268 0.000000
4.867268 -25494.876317 0.000000
0.000000 0.000000 0.000000
-26648.517296 4.834002 0.000000
4.834002 -26634.041648 0.000000
0.000000 0.000000 0.000000
-27841.974422 4.818296 0.000000
4.818296 -27827.305868 0.000000
0.000000 0.000000 0.000000
-28806.579975 4.791190 0.000000
4.791190 -28791.702363 0.000000
0.000000 0.000000 0.000000
-30573.153053 4.844335 0.000000
4.844335 -30558.335246 0.000000
0.000000 0.000000 0.000000
-32466.347131 4.803390 0.000000
4.803390 -32451.586345 0.000000
0.000000 0.000000 0.000000
-33582.981814 4.806504 0.000000
4.806504 -33567.903696 0.000000
0.000000 0.000000 0.000000
-36459.399728 4.929948 0.000000
4.929948 -36444.771422 0.000000
0.000000 0.000000 0.000000
-39002.423335 4.943005 0.000000
4.943005 -38988.533429 0.000000
0.000000 0.000000 0.000000
-41822.168563 4.684699 0.000000
4.684699 -41809.083202 0.000000
0.000000 0.000000 0.000000
-45641.008884 4.373975 0.000000
4.373975 -45629.172913 0.000000
0.000000 0.000000 0.000000
-49766.921080 3.801090 0.000000
3.801090 -49757.081559 0.000000
0.000000 0.000000 0.000000
-54753.137590 2.688627 0.000000
2.688627 -54746.328933 0.000000
0.000000 0.000000 0.000000
-48756.872791 -2.194007 0.000000
-2.194007 -48754.543346 0.000000
0.000000 0.000000 0.000000
-37454.452261 -2.915452 0.000000
-2.915452 -37450.208998 0.000000
0.000000 0.000000 0.000000
-30110.400291 -3.598287 0.000000
-3.598287 -30105.301981 0.000000
0.000000 0.000000 0.000000
-29620.129547 -3.192754 0.000000
-3.192754 -29615.377177 0.000000
0.000000 0.000000 0.000000
-24678.006234 -3.603363 0.000000
-3.603363 -24671.624911 0.000000
0.000000 0.000000 0.000000
-23595.863525 -4.108024 0.000000
-4.108024 -23589.665219 0.000000
0.000000 0.000000 0.000000
-21306.781905 -4.252342 0.000000
-4.252342 -21299.388161 0.000000
0.000000 0.000000 0.000000
-18999.112751 -4.729244 0.000000
-4.729244 -18991.119795 0.000000
0.000000 0.000000 0.000000
-18048.894112 -5.000831 0.000000
-5.000831 -18040.347664 0.000000
0.000000 0.000000 0.000000
-14866.491139 -5.395054 0.000000
-5.395054 -14856.940681 0.000000
0.000000 0.000000 0.000000
-14752.561900 -5.485883 0.000000
-5.485883 -14742.607607 0.000000
0.000000 0.000000 0.000000
-12114.668042 -5.617916 0.000000
-5.617916 -12103.883642 0.000000
0.000000 0.000000 0.000000
-10800.614387 -6.074194 0.000000
-6.074194 -10789.573908 0.000000
0.000000 0.000000 0.000000
-9514.636963 -6.097905 0.000000
-6.097905 -9502.926310 0.000000
0.000000 0.000000 0.000000
-8254.636305 -6.061671 0.000000
-6.061671 -8242.699832 0.000000
0.000000 0.000000 0.000000
-7358.475826 -6.345221 0.000000
-6.345221 -7346.243318 0.000000
0.000000 0.000000 0.000000
-6122.354673 -6.207465 0.000000
-6.207465 -6109.545693 0.000000
0.000000 0.000000 0.000000
-4702.751905 -6.381857 0.000000
-6.381857 -4689.431218 0.000000
0.000000 0.000000 0.000000
-4515.784056 -6.332730 0.000000
-6.332730 -4502.768114 0.000000
0.000000 0.000000 0.000000
-3507.868176 -6.557004 0.000000
-6.557004 -3494.399447 0.000000
0.000000 0.000000 0.000000
-3104.572722 -6.341401 0.000000
-6.341401 -3090.184953 0.000000
0.000000 0.000000 0.000000
-1543.746256 -6.391421 0.000000
-6.391421 -1529.281713 0.000000
0.000000 0.000000 0.000000
-1318.646303 -6.875505 0.000000
-6.875505 -1304.306177 0.000000
0.000000 0.000000 0.000000
-3289.428894 -6.408223 0.000000
-6.408223 -3274.355757 0.000000
0.000000 0.000000 0.000000
1104.194597 -6.907807 0.000000
-6.907807 1119.352553 0.000000
0.000000 0.000000 0.000000
3859.522800 -8.670462 0.000000
-8.670462 3877.410630 0.000000
0.000000 0.000000 0.000000
-7755.547772 -7.159723 0.000000
-7.159723 -7742.770022 0.000000
0.000000 0.000000 0.000000
8559.875876 -10.273520 0.000000
-10.273520 8586.771617 0.000000
0.000000 0.000000 0.000000
-2451.838230 -0.182172 0.000000
-0.182172 -2427.401073 0.000000
0.000000 0.000000 0.000000
-3512.435303 3.525736 0.000000
3.525736 -3511.104160 0.000000
0.000000 0.000000 0.000000
-1299.779307 0.336174 0.000000
0.336174 -1299.245289 0.000000
0.000000 0.000000 0.000000
-2170.378029 -1.072268 0.000000
-1.072268 -2169.457226 0.000000
0.000000 0.000000 0.000000
-852.298983 -2.544818 0.000000
-2.544818 -851.981779 0.000000
0.000000 0.000000 0.000000
1579.012954 -3.781966 0.000000
-3.781966 1578.366638 0.000000
0.000000 0.000000 0.000000
1163.451995 -3.551209 0.000000
-3.551209 1163.030350 0.000000
0.000000 0.000000 0.000000
-488.315263 -2.582576 0.000000
-2.582576 -488.100517 0.000000
0.000000 0.000000 0.000000
31.319117 -2.180467 0.000000
-2.180467 31.286316 0.000000
0.000000 0.000000 0.000000
1172.851663 -1.940479 0.000000
-1.940479 1172.384423 0.000000
0.000000 0.000000 0.000000
461.221942 -1.098430 0.000000
-1.098430 461.050153 0.000000
0.000000 0.000000 0.000000
-238.139919 -0.284688 0.000000
-0.284688 -238.056827 0.000000
0.000000 0.000000 0.000000
623.513129 0.007384 0.000000
0.007384 623.261922 0.000000
0.000000 0.000000 0.000000
601.462422 0.615817 0.000000
0.615817 601.238151 0.000000
0.000000 0.000000 0.000000
-600.723290 1.621034 0.000000
1.621034 -600.495430 0.000000
0.000000 0.000000 0.000000
7.938928 1.974962 0.000000
1.974962 7.926373 0.000000
0.000000 0.000000 0.000000
1045.683892 2.149761 0.000000
2.149761 1045.290570 0.000000
0.000000 0.000000 0.000000
-297.637472 3.136471 0.000000
3.136471 -297.528622 0.000000
0.000000 0.000000 0.000000
-701.197714 3.780514 0.000000
3.780514 -700.940124 0.000000
0.000000 0.000000 0.000000
1085.031640 3.589867 0.000000
3.589867 1084.628376 0.000000
0.000000 0.000000 0.000000
428.617546 4.155655 0.000000
4.155655 428.444925 0.000000
0.000000 0.000000 0.000000
-1138.905706 4.972805 0.000000
4.972805 -1138.483634 0.000000
0.000000 0.000000 0.000000
320.706167 4.651370 0.000000
4.651370 320.605002 0.000000
0.000000 0.000000 0.000000
648.354849 4.669972 0.000000
4.669972 648.104424 0.000000
0.000000 0.000000 0.000000
-1061.008809 5.429721 0.000000
5.429721 -1060.615783 0.000000
0.000000 0.000000 0.000000
-195.437038 5.245481 0.000000
5.245481 -195.340901 0.000000
0.000000 0.000000 0.000000
1169.132082 4.820708 0.000000
4.820708 1168.680070 0.000000
0.000000 0.000000 0.000000
363.599140 5.222358 0.000000
5.222358 363.437549 0.000000
0.000000 0.000000 0.000000
0.121412 5.545361 0.000000
5.545361 0.119918 0.000000
0.000000 0.000000 0.000000
105.769438 5.666084 0.000000
5.666084 105.729956 0.000000
0.000000 0.000000 0.000000
-58.651281 5.119308 0.000000
5.119308 -59.068679 0.000000
0.000000 0.000000 0.000000
-734.209700 5.231227 0.000000
5.231227 -734.941627 0.000000
0.000000 0.000000 0.000000
-396.845963 5.230018 0.000000
5.230018 -396.936032 0.000000
0.000000 0.000000 0.000000
1455.301761 4.869666 0.000000
4.869666 1455.931482 0.000000
0.000000 0.000000 0.000000
-760.855710 5.073978 0.000000
5.073978 -761.453792 0.000000
0.000000 0.000000 0.000000
-1459.583375 5.198125 0.000000
5.198125 -1460.876683 0.000000
0.000000 0.000000 0.000000
1741.060418 4.686029 0.000000
4.686029 1740.899841 0.000000
0.000000 0.000000 0.000000
956.459331 4.470530 0.000000
4.470530 955.572751 0.000000
0.000000 0.000000 0.000000
-1925.823883 4.587565 0.000000
4.587565 -1927.989594 0.000000
0.000000 0.000000 0.000000
160.266155 4.061531 0.000000
4.061531 158.968948 0.000000
0.000000 0.000000 0.000000
1623.847339 3.455306 0.000000
3.455306 1622.769781 0.000000
0.000000 0.000000 0.000000
-969.939064 3.409464 0.000000
3.409464 -972.367939 0.000000
0.000000 0.000000 0.000000
-1048.059031 3.123202 0.000000
3.123202 -1050.437925 0.000000
0.000000 0.000000 0.000000
1283.667326 2.384645 0.000000
2.384645 1282.068363 0.000000
0.000000 0.000000 0.000000
464.380933 1.972600 0.000000
1.972600 462.162482 0.000000
0.000000 0.000000 0.000000
-1221.591062 1.781652 0.000000
1.781652 -1224.352376 0.000000
0.000000 0.000000 0.000000
45.047198 1.220270 0.000000
1.220270 42.921363 0.000000
0.000000 0.000000 0.000000
999.301381 0.635653 0.000000
0.635653 997.430098 0.000000
0.000000 0.000000 0.000000
-684.006570 0.480352 0.000000
0.480352 -686.319838 0.000000
0.000000 0.000000 0.000000
-1165.035489 0.264299 0.000000
0.264299 -1167.155347 0.000000
0.000000 0.000000 0.000000
911.233788 -0.310576 0.000000
-0.310576 909.768013 0.000000
0.000000 0.000000 0.000000
986.905366 -0.613526 0.000000
-0.613526 985.377708 0.000000
0.000000 0.000000 0.000000
-1567.172462 -0.417261 0.000000
-0.417261 -1568.752260 0.000000
0.000000 0.000000 0.000000
-1519.294993 -0.399673 0.000000
-0.399673 -1518.959551 0.000000
0.000000 0.000000 0.000000
1242.688817 -0.492588 0.000000
-0.492588 1245.832598 0.000000
0.000000 0.000000 0.000000
708.926184 0.086575 0.000000
0.086575 713.452372 0.000000
0.000000 0.000000 0.000000
-1047.033312 1.136317 0.000000
1.136317 -1042.516272 0.000000
0.000000 0.000000 0.000000
2340.353918 1.413450 0.000000
1.413450 2348.808150 0.000000
0.000000 0.000000 0.000000
3518.389452 2.281173 0.000000
2.281173 3529.585541 0.000000
0.000000 0.000000 0.000000
1025.122335 4.923738 0.000000
4.923738 1025.231705 0.000000
0.000000 0.000000 0.000000
-338.394896 5.014342 0.000000
5.014342 -338.492118 0.000000
0.000000 0.000000 0.000000
-639.894709 5.032707 0.000000
5.032707 -640.624995 0.000000
0.000000 0.000000 0.000000
404.710167 5.006455 0.000000
5.006455 403.826041 0.000000
0.000000 0.000000 0.000000
313.079423 5.109070 0.000000
5.109070 312.203776 0.000000
0.000000 0.000000 0.000000
-141.057090 4.892356 0.000000
4.892356 -142.527231 0.000000
0.000000 0.000000 0.000000
114.731582 4.584091 0.000000
4.584091 112.488289 0.000000
0.000000 0.000000 0.000000
331.788613 4.420266 0.000000
4.420266 329.502999 0.000000
0.000000 0.000000 0.000000
-450.606075 4.335097 0.000000
4.335097 -453.268752 0.000000
0.000000 0.000000 0.000000
-189.014492 4.004130 0.000000
4.004130 -192.353944 0.000000
0.000000 0.000000 0.000000
780.957301 3.615771 0.000000
3.615771 777.550799 0.000000
0.000000 0.000000 0.000000
294.257551 3.405486 0.000000
3.405486 290.870458 0.000000
0.000000 0.000000 0.000000
-566.674600 3.169546 0.000000
3.169546 -570.555125 0.000000
0.000000 0.000000 0.000000
75.652522 2.734946 0.000000
2.734946 71.586356 0.000000
0.000000 0.000000 0.000000
612.757859 2.369692 0.000000
2.369692 608.941358 0.000000
0.000000 0.000000 0.000000
-125.812116 2.199165 0.000000
2.199165 -129.683082 0.000000
0.000000 0.000000 0.000000
-122.735066 1.901009 0.000000
1.901009 -126.589161 0.000000
0.000000 0.000000 0.000000
751.354811 1.470055 0.000000
1.470055 748.080655 0.000000
0.000000 0.000000 0.000000
170.012013 1.356755 0.000000
1.356755 167.149938 0.000000
0.000000 0.000000 0.000000
-835.476249 1.473420 0.000000
1.473420 -838.261037 0.000000
0.000000 0.000000 0.000000
220.562038 1.282481 0.000000
1.282481 218.315110 0.000000
0.000000 0.000000 0.000000
1312.231741 0.934276 0.000000
0.934276 1311.220592 0.000000
0.000000 0.000000 0.000000
337.083799 0.831969 0.000000
0.831969 337.710233 0.000000
0.000000 0.000000 0.000000
-823.532266 0.960750 0.000000
0.960750 -820.966898 0.000000
0.000000 0.000000 0.000000
370.840278 0.857519 0.000000
0.857519 375.400250 0.000000
0.000000 0.000000 0.000000
-305.671148 1.334821 0.000000
1.334821 -299.560518 0.000000
0.000000 0.000000 0.000000
-136.277056 1.263226 0.000000
1.263226 -126.679434 0.000000
0.000000 0.000000 0.000000
-2822.553692 1.693499 0.000000
1.693499 -2809.681086 0.000000
0.000000 0.000000 0.000000
-2220.231895 -1.349647 0.000000
-1.349647 -2198.260396 0.000000
0.000000 0.000000 0.000000
359.408310 4.743011 0.000000
4.743011 358.914250 0.000000
0.000000 0.000000 0.000000
438.817011 4.949179 0.000000
4.949179 438.097282 0.000000
0.000000 0.000000 0.000000
23.482345 5.086000 0.000000
5.086000 22.288746 0.000000
0.000000 0.000000 0.000000
-91.711486 5.058049 0.000000
5.058049 -93.213155 0.000000
0.000000 0.000000 0.000000
247.050677 4.874817 0.000000
4.874817 245.092579 0.000000
0.000000 0.000000 0.000000
94.984309 4.800368 0.000000
4.800368 92.487981 0.000000
0.000000 0.000000 0.000000
-257.639102 4.707724 0.000000
4.707724 -260.838505 0.000000
0.000000 0.000000 0.000000
177.554783 4.531911 0.000000
4.531911 173.857042 0.000000
0.000000 0.000000 0.000000
509.015211 4.354852 0.000000
4.354852 504.986054 0.000000
0.000000 0.000000 0.000000
32.330327 4.157243 0.000000
4.157243 27.871512 0.000000
0.000000 0.000000 0.000000
-124.471421 3.854634 0.000000
3.854634 -129.302048 0.000000
0.000000 0.000000 0.000000
297.111540 3.588065 0.000000
3.588065 292.246722 0.000000
0.000000 0.000000 0.000000
242.215008 3.424546 0.000000
3.424546 237.362499 0.000000
0.000000 0.000000 0.000000
-183.146737 3.232026 0.000000
3.232026 -188.180721 0.000000
0.000000 0.000000 0.000000
-25.560525 2.970495 0.000000
2.970495 -30.582523 0.000000
0.000000 0.000000 0.000000
342.106053 2.727020 0.000000
2.727020 337.476806 0.000000
0.000000 0.000000 0.000000
119.161636 2.480747 0.000000
2.480747 114.863207 0.000000
0.000000 0.000000 0.000000
-179.885668 2.251677 0.000000
2.251677 -183.849917 0.000000
0.000000 0.000000 0.000000
-7.115111 2.175191 0.000000
2.175191 -10.207237 0.000000
0.000000 0.000000 0.000000
51.305420 2.221732 0.000000
2.221732 49.447358 0.000000
0.000000 0.000000 0.000000
-165.278962 2.016374 0.000000
2.016374 -166.146294 0.000000
0.000000 0.000000 0.000000
-513.929654 1.578478 0.000000
1.578478 -513.916298 0.000000
0.000000 0.000000 0.000000
-31.485918 1.125367 0.000000
1.125367 -29.954371 0.000000
0.000000 0.000000 0.000000
-434.702531 1.174237 0.000000
1.174237 -431.365077 0.000000
0.000000 0.000000 0.000000
344.867556 1.124186 0.000000
1.124186 350.777805 0.000000
0.000000 0.000000 0.000000
198.115535 0.988870 0.000000
0.988870 207.572280 0.000000
0.000000 0.000000 0.000000
1556.175664 0.080496 0.000000
0.080496 1570.067406 0.000000
0.000000 0.000000 0.000000
1410.134060 -1.420954 0.000000
-1.420954 1430.183768 0.000000
0.000000 0.000000 0.000000
-743.847446 -4.751597 0.000000
-4.751597 -723.303941 0.000000
0.000000 0.000000 0.000000
6.327305 4.895507 0.000000
4.895507 5.591571 0.000000
0.000000 0.000000 0.000000
36.994513 5.040907 0.000000
5.040907 35.731110 0.000000
0.000000 0.000000 0.000000
189.396803 5.111771 0.000000
5.111771 187.695339 0.000000
0.000000 0.000000 0.000000
114.413766 5.114151 0.000000
5.114151 112.094886 0.000000
0.000000 0.000000 0.000000
162.690846 5.026546 0.000000
5.026546 159.645597 0.000000
0.000000 0.000000 0.000000
335.939365 4.942595 0.000000
4.942595 332.275885 0.000000
0.000000 0.000000 0.000000
264.300721 4.867262 0.000000
4.867262 260.155852 0.000000
0.000000 0.000000 0.000000
93.545363 4.731025 0.000000
4.731025 88.900910 0.000000
0.000000 0.000000 0.000000
125.450466 4.525145 0.000000
4.525145 120.327085 0.000000
0.000000 0.000000 0.000000
159.085804 4.344094 0.000000
4.344094 153.625169 0.000000
0.000000 0.000000 0.000000
117.223582 4.194782 0.000000
4.194782 111.567244 0.000000
0.000000 0.000000 0.000000
229.235645 4.001907 0.000000
4.001907 223.486534 0.000000
0.000000 0.000000 0.000000
313.393650 3.782371 0.000000
3.782371 307.693141 0.000000
0.000000 0.000000 0.000000
71.477117 3.620843 0.000000
3.620843 65.975894 0.000000
0.000000 0.000000 0.000000
-168.452537 3.484856 0.000000
3.484856 -173.700479 0.000000
0.000000 0.000000 0.000000
-6.059594 3.270212 0.000000
3.270212 -11.026977 0.000000
0.000000 0.000000 0.000000
212.707388 3.017959 0.000000
3.017959 208.221326 0.000000
0.000000 0.000000 0.000000
-31.906627 2.879456 0.000000
2.879456 -35.557003 0.000000
0.000000 0.000000 0.000000
-272.261748 2.805538 0.000000
2.805538 -274.678442 0.000000
0.000000 0.000000 0.000000
-350.685505 2.633995 0.000000
2.633995 -351.748314 0.000000
0.000000 0.000000 0.000000
-70.641012 2.212047 0.000000
2.212047 -70.395521 0.000000
0.000000 0.000000 0.000000
-353.530648 1.816160 0.000000
1.816160 -352.142436 0.000000
0.000000 0.000000 0.000000
-569.124317 1.588795 0.000000
1.588795 -566.367204 0.000000
0.000000 0.000000 0.000000
-885.464665 1.560973 0.000000
1.560973 -880.566885 0.000000
0.000000 0.000000 0.000000
-963.178377 1.208073 0.000000
1.208073 -955.413076 0.000000
0.000000 0.000000 0.000000
21.849703 0.211711 0.000000
0.211711 33.398192 0.000000
0.000000 0.000000 0.000000
-139.273398 -1.534615 0.000000
-1.534615 -124.270307 0.000000
0.000000 0.000000 0.000000
1352.088598 -4.026296 0.000000
-4.026296 1369.408732 0.000000
0.000000 0.000000 0.000000
925.085576 -6.633035 0.000000
-6.633035 943.464085 0.000000
0.000000 0.000000 0.000000
7.941750 5.089472 0.000000
5.089472 6.834561 0.000000
0.000000 0.000000 0.000000
108.648715 5.243383 0.000000
5.243383 106.915667 0.000000
0.000000 0.000000 0.000000
321.298692 5.315690 0.000000
5.315690 318.895075 0.000000
0.000000 0.000000 0.000000
344.978908 5.314686 0.000000
5.314686 341.835075 0.000000
0.000000 0.000000 0.000000
180.456554 5.264422 0.000000
5.264422 176.585686 0.000000
0.000000 0.000000 0.000000
217.482377 5.183803 0.000000
5.183803 213.014650 0.000000
0.000000 0.000000 0.000000
343.938342 5.092185 0.000000
5.092185 339.009968 0.000000
0.000000 0.000000 0.000000
258.317203 4.978636 0.000000
4.978636 252.947776 0.000000
0.000000 0.000000 0.000000
98.030122 4.841525 0.000000
4.841525 92.233701 0.000000
0.000000 0.000000 0.000000
161.567468 4.708318 0.000000
4.708318 155.486961 0.000000
0.000000 0.000000 0.000000
307.636842 4.565474 0.000000
4.565474 301.468024 0.000000
0.000000 0.000000 0.000000
253.837162 4.372090 0.000000
4.372090 247.709358 0.000000
0.000000 0.000000 0.000000
76.712837 4.165974 0.000000
4.165974 70.768529 0.000000
0.000000 0.000000 0.000000
-19.508521 4.035658 0.000000
4.035658 -25.083516 0.000000
0.000000 0.000000 0.000000
-11.408376 3.928192 0.000000
3.928192 -16.503232 0.000000
0.000000 0.000000 0.000000
-42.435574 3.733161 0.000000
3.733161 -47.095994 0.000000
0.000000 0.000000 0.000000
-8.745905 3.454452 0.000000
3.454452 -12.845134 0.000000
0.000000 0.000000 0.000000
-156.880614 3.255152 0.000000
3.255152 -159.995786 0.000000
0.000000 0.000000 0.000000
-364.316110 3.097669 0.000000
3.097669 -365.946822 0.000000
0.000000 0.000000 0.000000
-553.369673 2.820442 0.000000
2.820442 -553.409443 0.000000
0.000000 0.000000 0.000000
-447.240002 2.316421 0.000000
2.316421 -445.963062 0.000000
0.000000 0.000000 0.000000
-234.221257 1.842562 0.000000
1.842562 -231.665454 0.000000
0.000000 0.000000 0.000000
-517.939796 1.545068 0.000000
1.545068 -513.813774 0.000000
0.000000 0.000000 0.000000
-731.484948 1.233696 0.000000
1.233696 -724.987317 0.000000
0.000000 0.000000 0.000000
-1161.326839 0.590109 0.000000
0.590109 -1151.918817 0.000000
0.000000 0.000000 0.000000
-1007.696828 -0.523015 0.000000
-0.523015 -995.290680 0.000000
0.000000 0.000000 0.000000
-791.101064 -2.103759 0.000000
-2.103759 -776.239605 0.000000
0.000000 0.000000 0.000000
-1435.874056 -3.958483 0.000000
-3.958483 -1419.609748 0.000000
0.000000 0.000000 0.000000
-1183.339371 -5.846835 0.000000
-5.846835 -1167.366802 0.000000
0.000000 0.000000 0.000000
315.327002 5.407795 0.000000
5.407795 313.910322 0.000000
0.000000 0.000000 0.000000
273.623243 5.557394 0.000000
5.557394 271.463053 0.000000
0.000000 0.000000 0.000000
261.353832 5.614860 0.000000
5.614860 258.380311 0.000000
0.000000 0.000000 0.000000
234.627310 5.608881 0.000000
5.608881 230.848886 0.000000
0.000000 0.000000 0.000000
264.502434 5.584575 0.000000
5.584575 260.054281 0.000000
0.000000 0.000000 0.000000
344.122724 5.531863 0.000000
5.531863 339.131621 0.000000
0.000000 0.000000 0.000000
413.467470 5.426632 0.000000
5.426632 408.011252 0.000000
0.000000 0.000000 0.000000
320.974040 5.295369 0.000000
5.295369 315.133976 0.000000
0.000000 0.000000 0.000000
154.818863 5.190170 0.000000
5.190170 148.728860 0.000000
0.000000 0.000000 0.000000
100.927408 5.090982 0.000000
5.090982 94.713550 0.000000
0.000000 0.000000 0.000000
197.406932 4.924473 0.000000
4.924473 191.162731 0.000000
0.000000 0.000000 0.000000
208.100741 4.712191 0.000000
4.712191 201.943633 0.000000
0.000000 0.000000 0.000000
71.311066 4.541957 0.000000
4.541957 65.475207 0.000000
0.000000 0.000000 0.000000
-117.832819 4.430833 0.000000
4.430833 -123.097413 0.000000
0.000000 0.000000 0.000000
-160.147947 4.266873 0.000000
4.266873 -164.732144 0.000000
0.000000 0.000000 0.000000
-174.109457 4.014352 0.000000
4.014352 -178.057396 0.000000
0.000000 0.000000 0.000000
-262.376415 3.714806 0.000000
3.714806 -265.642792 0.000000
0.000000 0.000000 0.000000
-439.621670 3.476516 0.000000
3.476516 -441.833876 0.000000
0.000000 0.000000 0.000000
-623.067228 3.239659 0.000000
3.239659 -623.862461 0.000000
0.000000 0.000000 0.000000
-682.799341 2.869490 0.000000
2.869490 -682.013288 0.000000
0.000000 0.000000 0.000000
-816.761017 2.356173 0.000000
2.356173 -814.520849 0.000000
0.000000 0.000000 0.000000
-742.761957 1.810225 0.000000
1.810225 -738.926218 0.000000
0.000000 0.000000 0.000000
-830.829470 1.261042 0.000000
1.261042 -825.074605 0.000000
0.000000 0.000000 0.000000
-954.186864 0.537378 0.000000
0.537378 -946.071005 0.000000
0.000000 0.000000 0.000000
-932.275899 -0.417172 0.000000
-0.417172 -921.655553 0.000000
0.000000 0.000000 0.000000
-1116.190204 -1.644934 0.000000
-1.644934 -1103.503391 0.000000
0.000000 0.000000 0.000000
-1268.251632 -3.022274 0.000000
-3.022274 -1254.305394 0.000000
0.000000 0.000000 0.000000
-1389.372423 -4.487301 0.000000
-4.487301 -1375.098740 0.000000
0.000000 0.000000 0.000000
-1905.490623 -5.581593 0.000000
-5.581593 -1891.143967 0.000000
0.000000 0.000000 0.000000
357.619136 5.846745 0.000000
5.846745 355.969834 0.000000
0.000000 0.000000 0.000000
393.245961 5.965032 0.000000
5.965032 390.735246 0.000000
0.000000 0.000000 0.000000
341.603624 6.015276 0.000000
6.015276 338.218713 0.000000
0.000000 0.000000 0.000000
322.020585 6.026767 0.000000
6.026767 317.859535 0.000000
0.000000 0.000000 0.000000
399.283195 5.998632 0.000000
5.998632 394.500590 0.000000
0.000000 0.000000 0.000000
420.934613 5.908725 0.000000
5.908725 415.642082 0.000000
0.000000 0.000000 0.000000
350.400921 5.769552 0.000000
5.769552 344.704226 0.000000
0.000000 0.000000 0.000000
225.162208 5.651331 0.000000
5.651331 219.223045 0.000000
0.000000 0.000000 0.000000
153.098463 5.567637 0.000000
5.567637 147.084707 0.000000
0.000000 0.000000 0.000000
118.955819 5.450624 0.000000
5.450624 112.944431 0.000000
0.000000 0.000000 0.000000
106.870988 5.253055 0.000000
5.253055 100.876324 0.000000
0.000000 0.000000 0.000000
47.567982 5.037657 0.000000
5.037657 41.715634 0.000000
0.000000 0.000000 0.000000
-82.577728 4.861879 0.000000
4.861879 -87.978503 0.000000
0.000000 0.000000 0.000000
-276.894727 4.703158 0.000000
4.703158 -281.518053 0.000000
0.000000 0.000000 0.000000
-414.783972 4.490541 0.000000
4.490541 -418.570795 0.000000
0.000000 0.000000 0.000000
-486.432280 4.172270 0.000000
4.172270 -489.483034 0.000000
0.000000 0.000000 0.000000
-584.575019 3.826411 0.000000
3.826411 -586.846154 0.000000
0.000000 0.000000 0.000000
-692.727757 3.521661 0.000000
3.521661 -693.891509 0.000000
0.000000 0.000000 0.000000
-925.246004 3.197769 0.000000
3.197769 -925.003028 0.000000
0.000000 0.000000 0.000000
-1167.196004 2.736621 0.000000
2.736621 -1165.394260 0.000000
0.000000 0.000000 0.000000
-1324.608922 2.186712 0.000000
2.186712 -1321.201404 0.000000
0.000000 0.000000 0.000000
-1481.250096 1.545195 0.000000
1.545195 -1476.290840 0.000000
0.000000 0.000000 0.000000
-1541.429779 0.750265 0.000000
0.750265 -1534.810314 0.000000
0.000000 0.000000 0.000000
-1588.200289 -0.226969 0.000000
-0.226969 -1579.862590 0.000000
0.000000 0.000000 0.000000
-1450.216685 -1.337646 0.000000
-1.337646 -1440.175034 0.000000
0.000000 0.000000 0.000000
-1180.937887 -2.573315 0.000000
-2.573315 -1169.453951 0.000000
0.000000 0.000000 0.000000
-1140.042842 -3.831856 0.000000
-3.831856 -1127.327835 0.000000
0.000000 0.000000 0.000000
-974.807431 -4.958800 0.000000
-4.958800 -961.201497 0.000000
0.000000 0.000000 0.000000
-1165.052932 -5.966142 0.000000
-5.966142 -1150.864869 0.000000
0.000000 0.000000 0.000000
566.549551 6.414667 0.000000
6.414667 564.721513 0.000000
0.000000 0.000000 0.000000
575.926509 6.465141 0.000000
6.465141 573.175898 0.000000
0.000000 0.000000 0.000000
415.957016 6.485107 0.000000
6.485107 412.364656 0.000000
0.000000 0.000000 0.000000
332.212187 6.480519 0.000000
6.480519 327.941100 0.000000
0.000000 0.000000 0.000000
372.064444 6.421659 0.000000
6.421659 367.213919 0.000000
0.000000 0.000000 0.000000
401.344966 6.291621 0.000000
6.291621 396.017193 0.000000
0.000000 0.000000 0.000000
349.729398 6.153327 0.000000
6.153327 344.084254 0.000000
0.000000 0.000000 0.000000
223.549476 6.045963 0.000000
6.045963 217.807474 0.000000
0.000000 0.000000 0.000000
90.325827 5.927011 0.000000
5.927011 84.646041 0.000000
0.000000 0.000000 0.000000
-16.537442 5.754764 0.000000
5.754764 -22.101794 0.000000
0.000000 0.000000 0.000000
-78.572366 5.539256 0.000000
5.539256 -84.023663 0.000000
0.000000 0.000000 0.000000
-155.525040 5.314966 0.000000
5.314966 -160.732379 0.000000
0.000000 0.000000 0.000000
-296.424863 5.098197 0.000000
5.098197 -301.095672 0.000000
0.000000 0.000000 0.000000
-449.143998 4.892348 0.000000
4.892348 -452.995098 0.000000
0.000000 0.000000 0.000000
-647.474430 4.606647 0.000000
4.606647 -650.470274 0.000000
0.000000 0.000000 0.000000
-818.883389 4.220716 0.000000
4.220716 -821.033607 0.000000
0.000000 0.000000 0.000000
-949.028695 3.834288 0.000000
3.834288 -950.241732 0.000000
0.000000 0.000000 0.000000
-1071.919144 3.443726 0.000000
3.443726 -1072.019410 0.000000
0.000000 0.000000 0.000000
-1241.622307 2.964469 0.000000
2.964469 -1240.389082 0.000000
0.000000 0.000000 0.000000
-1434.087382 2.403661 0.000000
2.403661 -1431.396874 0.000000
0.000000 0.000000 0.000000
-1553.608265 1.797249 0.000000
1.797249 -1549.469960 0.000000
0.000000 0.000000 0.000000
-1791.971953 1.082084 0.000000
1.082084 -1786.505452 0.000000
0.000000 0.000000 0.000000
-2062.239530 0.263667 0.000000
0.263667 -2055.431421 0.000000
0.000000 0.000000 0.000000
-2247.906112 -0.583391 0.000000
-0.583391 -2239.732507 0.000000
0.000000 0.000000 0.000000
-2400.726559 -1.523193 0.000000
-1.523193 -2391.120881 0.000000
0.000000 0.000000 0.000000
-2441.603540 -2.561813 0.000000
-2.561813 -2430.579981 0.000000
0.000000 0.000000 0.000000
-2359.950098 -3.652851 0.000000
-3.652851 -2347.682756 0.000000
0.000000 0.000000 0.000000
-2260.779967 -4.777292 0.000000
-4.777292 -2247.530542 0.000000
0.000000 0.000000 0.000000
-2006.054970 -5.811234 0.000000
-5.811234 -1992.182275 0.000000
0.000000 0.000000 0.000000
649.208014 7.021118 0.000000
7.021118 647.272747 0.000000
0.000000 0.000000 0.000000
561.830400 7.011120 0.000000
7.011120 558.969969 0.000000
0.000000 0.000000 0.000000
426.683401 7.005406 0.000000
7.005406 423.115406 0.000000
0.000000 0.000000 0.000000
379.818780 6.970061 0.000000
6.970061 375.676578 0.000000
0.000000 0.000000 0.000000
397.977024 6.852470 0.000000
6.852470 393.289642 0.000000
0.000000 0.000000 0.000000
367.010784 6.695277 0.000000
6.695277 361.899354 0.000000
0.000000 0.000000 0.000000
253.163291 6.545899 0.000000
6.545899 247.827713 0.000000
0.000000 0.000000 0.000000
95.943847 6.400461 0.000000
6.400461 90.628187 0.000000
0.000000 0.000000 0.000000
-65.850431 6.229485 0.000000
6.229485 -70.980964 0.000000
0.000000 0.000000 0.000000
-179.962549 6.030351 0.000000
6.030351 -184.865993 0.000000
0.000000 0.000000 0.000000
-271.609307 5.785360 0.000000
5.785360 -276.310881 0.000000
0.000000 0.000000 0.000000
-423.110265 5.505797 0.000000
5.505797 -427.485059 0.000000
0.000000 0.000000 0.000000
-586.151697 5.266646 0.000000
5.266646 -589.937009 0.000000
0.000000 0.000000 0.000000
-771.646233 4.996560 0.000000
4.996560 -774.642833 0.000000
0.000000 0.000000 0.000000
-978.505006 4.619122 0.000000
4.619122 -980.617156 0.000000
0.000000 0.000000 0.000000
-1168.649968 4.209609 0.000000
4.209609 -1169.830699 0.000000
0.000000 0.000000 0.000000
-1358.286817 3.799593 0.000000
3.799593 -1358.536035 0.000000
0.000000 0.000000 0.000000
-1588.337101 3.299711 0.000000
3.299711 -1587.583444 0.000000
0.000000 0.000000 0.000000
-1770.731123 2.721550 0.000000
2.721550 -1768.780628 0.000000
0.000000 0.000000 0.000000
-1868.220909 2.131231 0.000000
2.131231 -1864.916891 0.000000
0.000000 0.000000 0.000000
-2002.102562 1.451032 0.000000
1.451032 -1997.429650 0.000000
0.000000 0.000000 0.000000
-2114.499307 0.657323 0.000000
0.657323 -2108.452508 0.000000
0.000000 0.000000 0.000000
-2329.624798 -0.136591 0.000000
-0.136591 -2322.322876 0.000000
0.000000 0.000000 0.000000
-2463.614838 -0.988368 0.000000
-0.988368 -2455.083749 0.000000
0.000000 0.000000 0.000000
-2693.811176 -1.885556 0.000000
-1.885556 -2684.190273 0.000000
0.000000 0.000000 0.000000
-2874.058519 -2.859779 0.000000
-2.859779 -2863.405978 0.000000
0.000000 0.000000 0.000000
-3024.049374 -3.750528 0.000000
-3.750528 -3012.614437 0.000000
0.000000 0.000000 0.000000
-3259.724283 -4.723471 0.000000
-4.723471 -3247.783548 0.000000
0.000000 0.000000 0.000000
-3127.500235 -5.606260 0.000000
-5.606260 -3114.706136 0.000000
0.000000 0.000000 0.000000
699.469335 7.669479 0.000000
7.669479 697.452259 0.000000
0.000000 0.000000 0.000000
623.787867 7.608450 0.000000
7.608450 620.951986 0.000000
0.000000 0.000000 0.000000
494.183320 7.560670 0.000000
7.560670 490.818512 0.000000
0.000000 0.000000 0.000000
372.799634 7.437325 0.000000
7.437325 368.943185 0.000000
0.000000 0.000000 0.000000
276.098971 7.262954 0.000000
7.262954 271.767999 0.000000
0.000000 0.000000 0.000000
204.952625 7.093940 0.000000
7.093940 200.281147 0.000000
0.000000 0.000000 0.000000
83.873354 6.910184 0.000000
6.910184 79.063341 0.000000
0.000000 0.000000 0.000000
-54.489460 6.711222 0.000000
6.711222 -59.193911 0.000000
0.000000 0.000000 0.000000
-234.051480 6.505201 0.000000
6.505201 -238.488744 0.000000
0.000000 0.000000 0.000000
-393.052537 6.254863 0.000000
6.254863 -397.196782 0.000000
0.000000 0.000000 0.000000
-619.695151 5.931648 0.000000
5.931648 -623.545737 0.000000
0.000000 0.000000 0.000000
-793.109624 5.644786 0.000000
5.644786 -796.518697 0.000000
0.000000 0.000000 0.000000
-976.640150 5.363785 0.000000
5.363785 -979.449045 0.000000
0.000000 0.000000 0.000000
-1170.394189 4.973888 0.000000
4.973888 -1172.452735 0.000000
0.000000 0.000000 0.000000
-1377.880906 4.549697 0.000000
4.549697 -1379.054909 0.000000
0.000000 0.000000 0.000000
-1609.311941 4.143286 0.000000
4.143286 -1609.592990 0.000000
0.000000 0.000000 0.000000
-1863.459931 3.660075 0.000000
3.660075 -1862.848902 0.000000
0.000000 0.000000 0.000000
-2135.471967 3.088676 0.000000
3.088676 -2133.886087 0.000000
0.000000 0.000000 0.000000
-2372.745501 2.533462 0.000000
2.533462 -2370.053583 0.000000
0.000000 0.000000 0.000000
-2569.933061 1.908020 0.000000
1.908020 -2566.058762 0.000000
0.000000 0.000000 0.000000
-2762.798349 1.148755 0.000000
1.148755 -2757.716122 0.000000
0.000000 0.000000 0.000000
-2927.797228 0.342866 0.000000
0.342866 -2921.614898 0.000000
0.000000 0.000000 0.000000
-3006.534020 -0.511166 0.000000
-0.511166 -2999.314982 0.000000
0.000000 0.000000 0.000000
-3109.302477 -1.418649 0.000000
-1.418649 -3101.156652 0.000000
0.000000 0.000000 0.000000
-3146.976479 -2.363874 0.000000
-2.363874 -3137.872247 0.000000
0.000000 0.000000 0.000000
-3173.642108 -3.190491 0.000000
-3.190491 -3163.652907 0.000000
0.000000 0.000000 0.000000
-3254.166223 -3.997026 0.000000
-3.997026 -3243.327333 0.000000
0.000000 0.000000 0.000000
-3267.956769 -4.844854 0.000000
-4.844854 -3256.157004 0.000000
0.000000 0.000000 0.000000
-3466.053797 -5.611270 0.000000
-5.611270 -3453.304141 0.000000
0.000000 0.000000 0.000000
744.113691 8.310226 0.000000
8.310226 742.126341 0.000000
0.000000 0.000000 0.000000
562.310082 8.195945 0.000000
8.195945 559.659240 0.000000
0.000000 0.000000 0.000000
441.115591 8.068037 0.000000
8.068037 438.050804 0.000000
0.000000 0.000000 0.000000
289.483482 7.878684 0.000000
7.878684 286.011627 0.000000
0.000000 0.000000 0.000000
156.574951 7.684914 0.000000
7.684914 152.751102 0.000000
0.000000 0.000000 0.000000
28.374225 7.465822 0.000000
7.465822 24.300323 0.000000
0.000000 0.000000 0.000000
-158.198562 7.217670 0.000000
7.217670 -162.322277 0.000000
0.000000 0.000000 0.000000
-346.893986 6.990843 0.000000
6.990843 -350.844447 0.000000
0.000000 0.000000 0.000000
-529.687326 6.736819 0.000000
6.736819 -533.344649 0.000000
0.000000 0.000000 0.000000
-751.235141 6.392490 0.000000
6.392490 -754.578486 0.000000
0.000000 0.000000 0.000000
-975.343988 6.068775 0.000000
6.068775 -978.285386 0.000000
0.000000 0.000000 0.000000
-1189.827552 5.768738 0.000000
5.768738 -1192.286862 0.000000
0.000000 0.000000 0.000000
-1429.182545 5.359440 0.000000
5.359440 -1431.072327 0.000000
0.000000 0.000000 0.000000
-1652.526013 4.906325 0.000000
4.906325 -1653.690806 0.000000
0.000000 0.000000 0.000000
-1885.265676 4.495567 0.000000
4.495567 -1885.595389 0.000000
0.000000 0.000000 0.000000
-2086.704646 4.014773 0.000000
4.014773 -2086.160305 0.000000
0.000000 0.000000 0.000000
-2318.407104 3.425027 0.000000
3.425027 -2316.980740 0.000000
0.000000 0.000000 0.000000
-2583.468067 2.849972 0.000000
2.849972 -2581.154153 0.000000
0.000000 0.000000 0.000000
-2841.459314 2.261510 0.000000
2.261510 -2838.214482 0.000000
0.000000 0.000000 0.000000
-3098.512438 1.574602 0.000000
1.574602 -3094.299993 0.000000
0.000000 0.000000 0.000000
-3367.279857 0.870890 0.000000
0.870890 -3362.121695 0.000000
0.000000 0.000000 0.000000
-3590.451825 0.139878 0.000000
0.139878 -3584.348742 0.000000
0.000000 0.000000 0.000000
-3774.853927 -0.636150 0.000000
-0.636150 -3767.823580 0.000000
0.000000 0.000000 0.000000
-3956.136645 -1.489705 0.000000
-1.489705 -3948.176476 0.000000
0.000000 0.000000 0.000000
-4002.244585 -2.305099 0.000000
-2.305099 -3993.296791 0.000000
0.000000 0.000000 0.000000
-4173.723573 -3.055366 0.000000
-3.055366 -4163.871231 0.000000
0.000000 0.000000 0.000000
-4163.148839 -3.978781 0.000000
-3.978781 -4152.310341 0.000000
0.000000 0.000000 0.000000
-4159.241005 -4.845817 0.000000
-4.845817 -4147.476749 0.000000
0.000000 0.000000 0.000000
-4224.121523 -5.589833 0.000000
-5.589833 -4211.708806 0.000000
0.000000 0.000000 0.000000
660.384350 8.933445 0.000000
8.933445 658.548813 0.000000
0.000000 0.000000 0.000000
490.563583 8.745175 0.000000
8.745175 488.189831 0.000000
0.000000 0.000000 0.000000
376.509192 8.539490 0.000000
8.539490 373.802200 0.000000
0.000000 0.000000 0.000000
163.112064 8.307995 0.000000
8.307995 160.124399 0.000000
0.000000 0.000000 0.000000
-55.130013 8.052588 0.000000
8.052588 -58.346451 0.000000
0.000000 0.000000 0.000000
-286.917505 7.758122 0.000000
7.758122 -290.286448 0.000000
0.000000 0.000000 0.000000
-494.650006 7.507486 0.000000
7.507486 -497.977321 0.000000
0.000000 0.000000 0.000000
-658.537240 7.241050 0.000000
7.241050 -661.670939 0.000000
0.000000 0.000000 0.000000
-885.719259 6.875788 0.000000
6.875788 -888.587298 0.000000
0.000000 0.000000 0.000000
-1122.680807 6.516694 0.000000
6.516694 -1125.173427 0.000000
0.000000 0.000000 0.000000
-1394.358543 6.200513 0.000000
6.200513 -1396.391216 0.000000
0.000000 0.000000 0.000000
-1673.971996 5.783892 0.000000
5.783892 -1675.531285 0.000000
0.000000 0.000000 0.000000
-1951.724778 5.314718 0.000000
5.314718 -1952.730494 0.000000
0.000000 0.000000 0.000000
-2252.321799 4.899367 0.000000
4.899367 -2252.665302 0.000000
0.000000 0.000000 0.000000
-2496.014930 4.435537 0.000000
4.435537 -2495.577386 0.000000
0.000000 0.000000 0.000000
-2713.836775 3.857197 0.000000
3.857197 -2712.607327 0.000000
0.000000 0.000000 0.000000
-3022.904005 3.266099 0.000000
3.266099 -3020.915067 0.000000
0.000000 0.000000 0.000000
-3238.188973 2.687621 0.000000
2.687621 -3235.388426 0.000000
0.000000 0.000000 0.000000
-3436.102979 2.026800 0.000000
2.026800 -3432.444662 0.000000
0.000000 0.000000 0.000000
-3684.380246 1.361871 0.000000
1.361871 -3679.860503 0.000000
0.000000 0.000000 0.000000
-3883.653065 0.679406 0.000000
0.679406 -3878.220063 0.000000
0.000000 0.000000 0.000000
-4135.506274 -0.019267 0.000000
-0.019267 -4129.200350 0.000000
0.000000 0.000000 0.000000
-4402.547579 -0.805036 0.000000
-0.805036 -4395.425656 0.000000
0.000000 0.000000 0.000000
-4549.073791 -1.598012 0.000000
-1.598012 -4541.132675 0.000000
0.000000 0.000000 0.000000
-4872.093411 -2.297471 0.000000
-2.297471 -4863.488845 0.000000
0.000000 0.000000 0.000000
-4911.564698 -3.142922 0.000000
-3.142922 -4902.115372 0.000000
0.000000 0.000000 0.000000
-5046.566868 -4.005231 0.000000
-4.005231 -5036.315499 0.000000
0.000000 0.000000 0.000000
-5161.452592 -4.746167 0.000000
-4.746167 -5150.435433 0.000000
0.000000 0.000000 0.000000
-5037.742356 -5.568444 0.000000
-5.568444 -5025.563624 0.000000
0.000000 0.000000 0.000000
567.483722 9.494806 0.000000
9.494806 565.903145 0.000000
0.000000 0.000000 0.000000
321.364062 9.230507 0.000000
9.230507 319.367587 0.000000
0.000000 0.000000 0.000000
139.058766 8.967583 0.000000
8.967583 136.806900 0.000000
0.000000 0.000000 0.000000
-93.557950 8.672217 0.000000
8.672217 -95.999048 0.000000
0.000000 0.000000 0.000000
-339.134358 8.344186 0.000000
8.344186 -341.726131 0.000000
0.000000 0.000000 0.000000
-622.092672 8.054576 0.000000
8.054576 -624.724326 0.000000
0.000000 0.000000 0.000000
-844.894106 7.761101 0.000000
7.761101 -847.416731 0.000000
0.000000 0.000000 0.000000
-1133.672136 7.364505 0.000000
7.364505 -1136.014385 0.000000
0.000000 0.000000 0.000000
-1398.438130 6.978555 0.000000
6.978555 -1400.469860 0.000000
0.000000 0.000000 0.000000
-1673.646141 6.638442 0.000000
6.638442 -1675.255124 0.000000
0.000000 0.000000 0.000000
-1929.745077 6.216846 0.000000
6.216846 -1930.901788 0.000000
0.000000 0.000000 0.000000
-2187.598476 5.730977 0.000000
5.730977 -2188.312742 0.000000
0.000000 0.000000 0.000000
-2530.094088 5.289679 0.000000
5.289679 -2530.305122 0.000000
0.000000 0.000000 0.000000
-2830.713359 4.833910 0.000000
4.833910 -2830.272315 0.000000
0.000000 0.000000 0.000000
-3075.372801 4.304212 0.000000
4.304212 -3074.235615 0.000000
0.000000 0.000000 0.000000
-3470.979436 3.735086 0.000000
3.735086 -3469.197631 0.000000
0.000000 0.000000 0.000000
-3749.887488 3.188591 0.000000
3.188591 -3747.356434 0.000000
0.000000 0.000000 0.000000
-3989.907672 2.566624 0.000000
2.566624 -3986.611351 0.000000
0.000000 0.000000 0.000000
-4312.862367 1.911481 0.000000
1.911481 -4308.833034 0.000000
0.000000 0.000000 0.000000
-4516.288747 1.240064 0.000000
1.240064 -4511.455696 0.000000
0.000000 0.000000 0.000000
-4787.137266 0.565841 0.000000
0.565841 -4781.563386 0.000000
0.000000 0.000000 0.000000
-5039.738750 -0.183884 0.000000
-0.183884 -5033.423538 0.000000
0.000000 0.000000 0.000000
-5132.890136 -0.952901 0.000000
-0.952901 -5125.797717 0.000000
0.000000 0.000000 0.000000
-5474.217962 -1.620687 0.000000
-1.620687 -5466.530137 0.000000
0.000000 0.000000 0.000000
-5567.150571 -2.375825 0.000000
-2.375825 -5558.650824 0.000000
0.000000 0.000000 0.000000
-5676.340845 -3.168173 0.000000
-3.168173 -5667.033467 0.000000
0.000000 0.000000 0.000000
-5921.057431 -3.870204 0.000000
-3.870204 -5911.083527 0.000000
0.000000 0.000000 0.000000
-5978.478781 -4.678163 0.000000
-4.678163 -5967.560406 0.000000
0.000000 0.000000 0.000000
-6050.675577 -5.461286 0.000000
-5.461286 -6038.895016 0.000000
0.000000 0.000000 0.000000
307.972520 9.973359 0.000000
9.973359 306.710158 0.000000
0.000000 0.000000 0.000000
54.552730 9.665968 0.000000
9.665968 52.966357 0.000000
0.000000 0.000000 0.000000
-166.578493 9.330639 0.000000
9.330639 -168.358067 0.000000
0.000000 0.000000 0.000000
-452.587036 8.961067 0.000000
8.961067 -454.490569 0.000000
0.000000 0.000000 0.000000
-754.346706 8.639416 0.000000
8.639416 -756.286237 0.000000
0.000000 0.000000 0.000000
-1048.709668 8.300204 0.000000
8.300204 -1050.582334 0.000000
0.000000 0.000000 0.000000
-1363.694759 7.884928 0.000000
7.884928 -1365.450924 0.000000
0.000000 0.000000 0.000000
-1675.404719 7.485037 0.000000
7.485037 -1676.957661 0.000000
0.000000 0.000000 0.000000
-1981.191776 7.123628 0.000000
7.123628 -1982.417661 0.000000
0.000000 0.000000 0.000000
-2277.192323 6.697444 0.000000
6.697444 -2278.003154 0.000000
0.000000 0.000000 0.000000
-2533.235713 6.214853 0.000000
6.214853 -2533.645569 0.000000
0.000000 0.000000 0.000000
-2914.900071 5.729977 0.000000
5.729977 -2914.905680 0.000000
0.000000 0.000000 0.000000
-3220.492094 5.249777 0.000000
5.249777 -3219.922281 0.000000
0.000000 0.000000 0.000000
-3434.435976 4.751766 0.000000
4.751766 -3433.250402 0.000000
0.000000 0.000000 0.000000
-3840.261950 4.179008 0.000000
4.179008 -3838.555474 0.000000
0.000000 0.000000 0.000000
-4142.115186 3.638529 0.000000
3.638529 -4139.752285 0.000000
0.000000 0.000000 0.000000
-4388.880504 3.059581 0.000000
3.059581 -4385.849005 0.000000
0.000000 0.000000 0.000000
-4811.168745 2.425175 0.000000
2.425175 -4807.549691 0.000000
0.000000 0.000000 0.000000
-4996.066901 1.791410 0.000000
1.791410 -4991.743804 0.000000
0.000000 0.000000 0.000000
-5313.194250 1.171264 0.000000
1.171264 -5308.267886 0.000000
0.000000 0.000000 0.000000
-5605.749058 0.456702 0.000000
0.456702 -5600.162370 0.000000
0.000000 0.000000 0.000000
-5666.395732 -0.266888 0.000000
-0.266888 -5660.022759 0.000000
0.000000 0.000000 0.000000
-6056.814118 -0.918594 0.000000
-0.918594 -6049.882486 0.000000
0.000000 0.000000 0.000000
-6247.811281 -1.671261 0.000000
-1.671261 -6240.108111 0.000000
0.000000 0.000000 0.000000
-6291.497172 -2.424103 0.000000
-2.424103 -6282.969186 0.000000
0.000000 0.000000 0.000000
-6726.348847 -3.111453 0.000000
-3.111453 -6717.313472 0.000000
0.000000 0.000000 0.000000
-6763.377566 -3.923041 0.000000
-3.923041 -6753.528809 0.000000
0.000000 0.000000 0.000000
-6905.686762 -4.634225 0.000000
-4.634225 -6895.098507 0.000000
0.000000 0.000000 0.000000
-7147.189525 -5.372118 0.000000
-5.372118 -7135.874596 0.000000
0.000000 0.000000 0.000000
-3.982799 10.377236 0.000000
10.377236 -4.908899 0.000000
0.000000 0.000000 0.000000
-304.516132 9.998853 0.000000
9.998853 -305.675873 0.000000
0.000000 0.000000 0.000000
-646.335909 9.601139 0.000000
9.601139 -647.627577 0.000000
0.000000 0.000000 0.000000
-963.049604 9.251346 0.000000
9.251346 -964.358627 0.000000
0.000000 0.000000 0.000000
-1241.973480 8.869322 0.000000
8.869322 -1243.238564 0.000000
0.000000 0.000000 0.000000
-1572.197911 8.427230 0.000000
8.427230 -1573.384857 0.000000
0.000000 0.000000 0.000000
-1902.952143 8.017973 0.000000
8.017973 -1904.013549 0.000000
0.000000 0.000000 0.000000
-2271.384592 7.608514 0.000000
7.608514 -2272.214676 0.000000
0.000000 0.000000 0.000000
-2612.055284 7.178634 0.000000
7.178634 -2612.512762 0.000000
0.000000 0.000000 0.000000
-2922.349661 6.720401 0.000000
6.720401 -2922.436167 0.000000
0.000000 0.000000 0.000000
-3354.644115 6.213729 0.000000
6.213729 -3354.405055 0.000000
0.000000 0.000000 0.000000
-3701.542657 5.711798 0.000000
5.711798 -3700.813747 0.000000
0.000000 0.000000 0.000000
-3920.640660 5.255888 0.000000
5.255888 -3919.366764 0.000000
0.000000 0.000000 0.000000
-4343.433907 4.670138 0.000000
4.670138 -4341.746751 0.000000
0.000000 0.000000 0.000000
-4630.835318 4.117806 0.000000
4.117806 -4628.582520 0.000000
0.000000 0.000000 0.000000
-4882.695975 3.572031 0.000000
3.572031 -4879.854883 0.000000
0.000000 0.000000 0.000000
-5364.619071 2.955435 0.000000
2.955435 -5361.285333 0.000000
0.000000 0.000000 0.000000
-5539.564081 2.356332 0.000000
2.356332 -5535.560176 0.000000
0.000000 0.000000 0.000000
-5937.558763 1.815276 0.000000
1.815276 -5933.026122 0.000000
0.000000 0.000000 0.000000
-6349.092386 1.132472 0.000000
1.132472 -6343.989020 0.000000
0.000000 0.000000 0.000000
-6450.480040 0.481043 0.000000
0.481043 -6444.638018 0.000000
0.000000 0.000000 0.000000
-6885.131671 -0.110901 0.000000
-0.110901 -6878.807117 0.000000
0.000000 0.000000 0.000000
-7192.347985 -0.859235 0.000000
-0.859235 -7185.384674 0.000000
0.000000 0.000000 0.000000
-7157.797010 -1.572487 0.000000
-1.572487 -7150.046933 0.000000
0.000000 0.000000 0.000000
-7630.437369 -2.223065 0.000000
-2.223065 -7622.229544 0.000000
0.000000 0.000000 0.000000
-7667.531892 -3.064168 0.000000
-3.064168 -7658.548823 0.000000
0.000000 0.000000 0.000000
-7765.327767 -3.789059 0.000000
-3.789059 -7755.577138 0.000000
0.000000 0.000000 0.000000
-8042.022664 -4.526418 0.000000
-4.526418 -8031.593850 0.000000
0.000000 0.000000 0.000000
-8002.641440 -5.429515 0.000000
-5.429515 -7991.259495 0.000000
0.000000 0.000000 0.000000
-465.463593 10.661783 0.000000
10.661783 -466.038662 0.000000
0.000000 0.000000 0.000000
-843.141812 10.242616 0.000000
10.242616 -843.900795 0.000000
0.000000 0.000000 0.000000
-1203.304992 9.869279 0.000000
9.869279 -1204.078679 0.000000
0.000000 0.000000 0.000000
-1554.830683 9.441550 0.000000
9.441550 -1555.566950 0.000000
0.000000 0.000000 0.000000
-1928.298134 8.986416 0.000000
8.986416 -1928.967797 0.000000
0.000000 0.000000 0.000000
-2295.568067 8.568043 0.000000
8.568043 -2296.129605 0.000000
0.000000 0.000000 0.000000
-2672.926338 8.105478 0.000000
8.105478 -2673.319767 0.000000
0.000000 0.000000 0.000000
-3002.832851 7.665660 0.000000
7.665660 -3002.904396 0.000000
0.000000 0.000000 0.000000
-3304.608891 7.230192 0.000000
7.230192 -3304.362752 0.000000
0.000000 0.000000 0.000000
-3757.057656 6.695194 0.000000
6.695194 -3756.561470 0.000000
0.000000 0.000000 0.000000
-4122.043594 6.181042 0.000000
6.181042 -4121.153094 0.000000
0.000000 0.000000 0.000000
-4422.246583 5.759978 0.000000
5.759978 -4420.873922 0.000000
0.000000 0.000000 0.000000
-4912.350345 5.180576 0.000000
5.180576 -4910.604826 0.000000
0.000000 0.000000 0.000000
-5227.753959 4.633664 0.000000
4.633664 -5225.497130 0.000000
0.000000 0.000000 0.000000
-5513.512184 4.128231 0.000000
4.128231 -5510.720743 0.000000
0.000000 0.000000 0.000000
-6010.406373 3.517235 0.000000
3.517235 -6007.162008 0.000000
0.000000 0.000000 0.000000
-6122.354813 2.927176 0.000000
2.927176 -6118.463246 0.000000
0.000000 0.000000 0.000000
-6512.327703 2.413597 0.000000
2.413597 -6507.935911 0.000000
0.000000 0.000000 0.000000
-6952.447774 1.722123 0.000000
1.722123 -6947.551618 0.000000
0.000000 0.000000 0.000000
-7069.825647 1.094761 0.000000
1.094761 -7064.292093 0.000000
0.000000 0.000000 0.000000
-7509.078864 0.561390 0.000000
0.561390 -7503.123659 0.000000
0.000000 0.000000 0.000000
-7966.377909 -0.160944 0.000000
-0.160944 -7959.947593 0.000000
0.000000 0.000000 0.000000
-7954.763875 -0.822498 0.000000
-0.822498 -7947.671480 0.000000
0.000000 0.000000 0.000000
-8511.382526 -1.390672 0.000000
-1.390672 -8503.899975 0.000000
0.000000 0.000000 0.000000
-8753.374407 -2.182719 0.000000
-2.182719 -8745.261642 0.000000
0.000000 0.000000 0.000000
-8797.740539 -2.897972 0.000000
-2.897972 -8788.927184 0.000000
0.000000 0.000000 0.000000
-9283.186884 -3.564744 0.000000
-3.564744 -9273.892149 0.000000
0.000000 0.000000 0.000000
-9318.279684 -4.456799 0.000000
-4.456799 -9308.212691 0.000000
0.000000 0.000000 0.000000
-9346.603820 -5.174040 0.000000
-5.174040 -9335.793502 0.000000
0.000000 0.000000 0.000000
-1119.904699 10.871637 0.000000
10.871637 -1120.194093 0.000000
0.000000 0.000000 0.000000
-1498.981561 10.469224 0.000000
10.469224 -1499.286175 0.000000
0.000000 0.000000 0.000000
-1881.451645 10.011981 0.000000
10.011981 -1881.728005 0.000000
0.000000 0.000000 0.000000
-2287.587642 9.562249 0.000000
9.562249 -2287.801860 0.000000
0.000000 0.000000 0.000000
-2688.062527 9.128410 0.000000
9.128410 -2688.174608 0.000000
0.000000 0.000000 0.000000
-3106.883890 8.619544 0.000000
8.619544 -3106.865343 0.000000
0.000000 0.000000 0.000000
-3479.101721 8.180639 0.000000
8.180639 -3478.821784 0.000000
0.000000 0.000000 0.000000
-3838.675221 7.748288 0.000000
7.748288 -3838.120699 0.000000
0.000000 0.000000 0.000000
-4291.101405 7.184444 0.000000
7.184444 -4290.324609 0.000000
0.000000 0.000000 0.000000
-4648.002355 6.673953 0.000000
6.673953 -4646.883949 0.000000
0.000000 0.000000 0.000000
-4980.118732 6.255923 0.000000
6.255923 -4978.570738 0.000000
0.000000 0.000000 0.000000
-5463.546741 5.680686 0.000000
5.680686 -5461.636272 0.000000
0.000000 0.000000 0.000000
-5752.909068 5.152876 0.000000
5.152876 -5750.562413 0.000000
0.000000 0.000000 0.000000
-6118.923683 4.665428 0.000000
4.665428 -6116.145930 0.000000
0.000000 0.000000 0.000000
-6645.844595 4.064103 0.000000
4.064103 -6642.696671 0.000000
0.000000 0.000000 0.000000
-6831.527792 3.497521 0.000000
3.497521 -6827.862867 0.000000
0.000000 0.000000 0.000000
-7248.060877 2.995851 0.000000
2.995851 -7243.962079 0.000000
0.000000 0.000000 0.000000
-7697.792970 2.321675 0.000000
2.321675 -7693.240202 0.000000
0.000000 0.000000 0.000000
-7802.333093 1.711454 0.000000
1.711454 -7797.239222 0.000000
0.000000 0.000000 0.000000
-8162.658517 1.191564 0.000000
1.191564 -8157.105146 0.000000
0.000000 0.000000 0.000000
-8613.139977 0.487592 0.000000
0.487592 -8607.104087 0.000000
0.000000 0.000000 0.000000
-8630.054999 -0.153526 0.000000
-0.153526 -8623.426846 0.000000
0.000000 0.000000 0.000000
-9105.114894 -0.709274 0.000000
-0.709274 -9098.075204 0.000000
0.000000 0.000000 0.000000
-9466.337401 -1.430939 0.000000
-1.430939 -9458.759035 0.000000
0.000000 0.000000 0.000000
-9482.349384 -2.141055 0.000000
-2.141055 -9474.175373 0.000000
0.000000 0.000000 0.000000
-10029.385027 -2.728143 0.000000
-2.728143 -10020.818314 0.000000
0.000000 0.000000 0.000000
-10259.809985 -3.536380 0.000000
-3.536380 -10250.659389 0.000000
0.000000 0.000000 0.000000
-10446.809272 -4.269404 0.000000
-4.269404 -10437.053869 0.000000
0.000000 0.000000 0.000000
-10887.188787 -5.013029 0.000000
-5.013029 -10876.799224 0.000000
0.000000 0.000000 0.000000
-1885.552821 11.055011 0.000000
11.055011 -1885.434356 0.000000
0.000000 0.000000 0.000000
-2302.112912 10.572265 0.000000
10.572265 -2302.012508 0.000000
0.000000 0.000000 0.000000
-2731.508491 10.127683 0.000000
10.127683 -2731.358733 0.000000
0.000000 0.000000 0.000000
-3158.556857 9.657409 0.000000
9.657409 -3158.312655 0.000000
0.000000 0.000000 0.000000
-3589.484321 9.134939 0.000000
9.134939 -3589.125620 0.000000
0.000000 0.000000 0.000000
-3998.843035 8.707622 0.000000
8.707622 -3998.256567 0.000000
0.000000 0.000000 0.000000
-4405.613788 8.258618 0.000000
8.258618 -4404.756807 0.000000
0.000000 0.000000 0.000000
-4850.021309 7.677995 0.000000
7.677995 -4848.937936 0.000000
0.000000 0.000000 0.000000
-5219.798904 7.197179 0.000000
7.197179 -5218.434269 0.000000
0.000000 0.000000 0.000000
-5618.234174 6.737343 0.000000
6.737343 -5616.510349 0.000000
0.000000 0.000000 0.000000
-6084.099473 6.175066 0.000000
6.175066 -6082.043045 0.000000
0.000000 0.000000 0.000000
-6384.927973 5.664256 0.000000
5.664256 -6382.493583 0.000000
0.000000 0.000000 0.000000
-6808.722398 5.167819 0.000000
5.167819 -6805.902220 0.000000
0.000000 0.000000 0.000000
-7292.990062 4.594772 0.000000
4.594772 -7289.782900 0.000000
0.000000 0.000000 0.000000
-7581.156466 4.080196 0.000000
4.080196 -7577.521405 0.000000
0.000000 0.000000 0.000000
-8020.044646 3.597254 0.000000
3.597254 -8015.975307 0.000000
0.000000 0.000000 0.000000
-8485.767772 3.002483 0.000000
3.002483 -8481.259719 0.000000
0.000000 0.000000 0.000000
-8726.889804 2.473552 0.000000
2.473552 -8721.962043 0.000000
0.000000 0.000000 0.000000
-9148.132113 1.953307 0.000000
1.953307 -9142.769815 0.000000
0.000000 0.000000 0.000000
-9628.709377 1.320832 0.000000
1.320832 -9622.875333 0.000000
0.000000 0.000000 0.000000
-9811.325516 0.723112 0.000000
0.723112 -9805.013973 0.000000
0.000000 0.000000 0.000000
-10211.749494 0.150372 0.000000
0.150372 -10205.032366 0.000000
0.000000 0.000000 0.000000
-10637.304776 -0.523462 0.000000
-0.523462 -10630.123785 0.000000
0.000000 0.000000 0.000000
-10740.884586 -1.229571 0.000000
-1.229571 -10733.234344 0.000000
0.000000 0.000000 0.000000
-11163.278046 -1.850469 0.000000
-1.850469 -11155.235489 0.000000
0.000000 0.000000 0.000000
-11460.436487 -2.597712 0.000000
-2.597712 -11451.888429 0.000000
0.000000 0.000000 0.000000
-11562.130330 -3.369779 0.000000
-3.369779 -11553.062032 0.000000
0.000000 0.000000 0.000000
-11910.312438 -4.100422 0.000000
-4.100422 -11900.763812 0.000000
0.000000 0.000000 0.000000
-12149.056280 -4.959962 0.000000
-4.959962 -12138.977838 0.000000
0.000000 0.000000 0.000000
-2834.362150 11.117726 0.000000
11.117726 -2833.917097 0.000000
0.000000 0.000000 0.000000
-3269.656324 10.668266 0.000000
10.668266 -3269.138435 0.000000
0.000000 0.000000 0.000000
-3708.180562 10.159472 0.000000
10.159472 -3707.576717 0.000000
0.000000 0.000000 0.000000
-4169.090902 9.653512 0.000000
9.653512 -4168.399220 0.000000
0.000000 0.000000 0.000000
-4629.252148 9.221104 0.000000
9.221104 -4628.377981 0.000000
0.000000 0.000000 0.000000
-5065.998952 8.725800 0.000000
8.725800 -5064.866570 0.000000
0.000000 0.000000 0.000000
-5522.894848 8.181816 0.000000
8.181816 -5521.552999 0.000000
0.000000 0.000000 0.000000
-5960.040441 7.716277 0.000000
7.716277 -5958.470491 0.000000
0.000000 0.000000 0.000000
-6389.084313 7.215638 0.000000
7.215638 -6387.201804 0.000000
0.000000 0.000000 0.000000
-6840.300589 6.687337 0.000000
6.687337 -6838.081226 0.000000
0.000000 0.000000 0.000000
-7186.793095 6.197501 0.000000
6.197501 -7184.220491 0.000000
0.000000 0.000000 0.000000
-7602.053665 5.669791 0.000000
5.669791 -7599.076876 0.000000
0.000000 0.000000 0.000000
-8005.949108 5.134449 0.000000
5.134449 -8002.578017 0.000000
0.000000 0.000000 0.000000
-8376.899129 4.632538 0.000000
4.632538 -8373.157446 0.000000
0.000000 0.000000 0.000000
-8756.421301 4.104550 0.000000
4.104550 -8752.233990 0.000000
0.000000 0.000000 0.000000
-9145.099452 3.556454 0.000000
3.556454 -9140.492456 0.000000
0.000000 0.000000 0.000000
-9509.687577 3.060985 0.000000
3.060985 -9504.730758 0.000000
0.000000 0.000000 0.000000
-9924.423760 2.497564 0.000000
2.497564 -9919.110631 0.000000
0.000000 0.000000 0.000000
-10346.818174 1.934504 0.000000
1.934504 -10341.100822 0.000000
0.000000 0.000000 0.000000
-10668.802328 1.403341 0.000000
1.403341 -10662.772589 0.000000
0.000000 0.000000 0.000000
-11025.542577 0.837822 0.000000
0.837822 -11019.162470 0.000000
0.000000 0.000000 0.000000
-11473.800709 0.245495 0.000000
0.245495 -11467.063237 0.000000
0.000000 0.000000 0.000000
-11759.717581 -0.376403 0.000000
-0.376403 -11752.651801 0.000000
0.000000 0.000000 0.000000
-12112.761394 -1.005949 0.000000
-1.005949 -12105.305326 0.000000
0.000000 0.000000 0.000000
-12510.314883 -1.650208 0.000000
-1.650208 -12502.443836 0.000000
0.000000 0.000000 0.000000
-12821.884105 -2.379975 0.000000
-2.379975 -12813.638637 0.000000
0.000000 0.000000 0.000000
-13183.296959 -3.113494 0.000000
-3.113494 -13174.675910 0.000000
0.000000 0.000000 0.000000
-13428.885220 -3.876491 0.000000
-3.876491 -13419.795852 0.000000
0.000000 0.000000 0.000000
-13711.939082 -4.694519 0.000000
-4.694519 -13702.443746 0.000000
0.000000 0.000000 0.000000
-3932.855973 11.158648 0.000000
11.158648 -3932.051223 0.000000
0.000000 0.000000 0.000000
-4383.987288 10.641498 0.000000
10.641498 -4383.095675 0.000000
0.000000 0.000000 0.000000
-4861.165169 10.157112 0.000000
10.157112 -4860.188069 0.000000
0.000000 0.000000 0.000000
-5328.383609 9.683093 0.000000
9.683093 -5327.233952 0.000000
0.000000 0.000000 0.000000
-5738.932424 9.154591 0.000000
9.154591 -5737.541454 0.000000
0.000000 0.000000 0.000000
-6232.048288 8.672091 0.000000
8.672091 -6230.467593 0.000000
0.000000 0.000000 0.000000
-6669.381582 8.190588 0.000000
8.190588 -6667.581216 0.000000
0.000000 0.000000 0.000000
-7124.035509 7.659515 0.000000
7.659515 -7121.923426 0.000000
0.000000 0.000000 0.000000
-7601.521143 7.188015 0.000000
7.188015 -7599.092622 0.000000
0.000000 0.000000 0.000000
-8054.379301 6.692934 0.000000
6.692934 -8051.631991 0.000000
0.000000 0.000000 0.000000
-8441.671094 6.174018 0.000000
6.174018 -8438.563038 0.000000
0.000000 0.000000 0.000000
-8852.198759 5.671706 0.000000
5.671706 -8848.771501 0.000000
0.000000 0.000000 0.000000
-9344.128441 5.178971 0.000000
5.178971 -9340.388858 0.000000
0.000000 0.000000 0.000000
-9679.826187 4.630099 0.000000
4.630099 -9675.694198 0.000000
0.000000 0.000000 0.000000
-10044.324149 4.132268 0.000000
4.132268 -10039.785643 0.000000
0.000000 0.000000 0.000000
-10463.238418 3.655858 0.000000
3.655858 -10458.345633 0.000000
0.000000 0.000000 0.000000
-10844.814902 3.080374 0.000000
3.080374 -10839.546267 0.000000
0.000000 0.000000 0.000000
-11159.775981 2.584709 0.000000
2.584709 -11154.112467 0.000000
0.000000 0.000000 0.000000
-11591.824329 2.084571 0.000000
2.084571 -11585.889330 0.000000
0.000000 0.000000 0.000000
-11905.806629 1.524055 0.000000
1.524055 -11899.465489 0.000000
0.000000 0.000000 0.000000
-12350.963361 0.986307 0.000000
0.986307 -12344.320659 0.000000
0.000000 0.000000 0.000000
-12758.824935 0.432536 0.000000
0.432536 -12751.890259 0.000000
0.000000 0.000000 0.000000
-13066.167106 -0.199261 0.000000
-0.199261 -13058.926155 0.000000
0.000000 0.000000 0.000000
-13492.326351 -0.780913 0.000000
-0.780913 -13484.810066 0.000000
0.000000 0.000000 0.000000
-13941.833345 -1.441540 0.000000
-1.441540 -13934.066988 0.000000
0.000000 0.000000 0.000000
-14285.491875 -2.143697 0.000000
-2.143697 -14277.443457 0.000000
0.000000 0.000000 0.000000
-14665.029455 -2.854175 0.000000
-2.854175 -14656.629968 0.000000
0.000000 0.000000 0.000000
-15024.985361 -3.615177 0.000000
-3.615177 -15016.270996 0.000000
0.000000 0.000000 0.000000
-15265.107921 -4.468698 0.000000
-4.468698 -15256.009510 0.000000
0.000000 0.000000 0.000000
-5126.844600 11.117103 0.000000
11.117103 -5125.751772 0.000000
0.000000 0.000000 0.000000
-5687.980129 10.632571 0.000000
10.632571 -5686.803222 0.000000
0.000000 0.000000 0.000000
-6157.613259 10.113552 0.000000
10.113552 -6156.241136 0.000000
0.000000 0.000000 0.000000
-6612.604789 9.607007 0.000000
9.607007 -6611.001481 0.000000
0.000000 0.000000 0.000000
-7129.611722 9.150798 0.000000
9.150798 -7127.805168 0.000000
0.000000 0.000000 0.000000
-7525.994301 8.596921 0.000000
8.596921 -7523.943554 0.000000
0.000000 0.000000 0.000000
-7968.963432 8.078306 0.000000
8.078306 -7966.634353 0.000000
0.000000 0.000000 0.000000
-8489.332225 7.606707 0.000000
7.606707 -8486.694472 0.000000
0.000000 0.000000 0.000000
-8929.199073 7.113852 0.000000
7.113852 -8926.251598 0.000000
0.000000 0.000000 0.000000
-9323.119061 6.625329 0.000000
6.625329 -9319.827908 0.000000
0.000000 0.000000 0.000000
-9796.161064 6.149280 0.000000
6.149280 -9792.533260 0.000000
0.000000 0.000000 0.000000
-10288.238183 5.693856 0.000000
5.693856 -10284.254792 0.000000
0.000000 0.000000 0.000000
-10683.848272 5.185740 0.000000
5.185740 -10679.507307 0.000000
0.000000 0.000000 0.000000
-11078.909636 4.760217 0.000000
4.760217 -11074.179504 0.000000
0.000000 0.000000 0.000000
-11558.332851 4.308131 0.000000
4.308131 -11553.246919 0.000000
0.000000 0.000000 0.000000
-11917.144315 3.794085 0.000000
3.794085 -11911.692343 0.000000
0.000000 0.000000 0.000000
-12262.911365 3.346890 0.000000
3.346890 -12257.142360 0.000000
0.000000 0.000000 0.000000
-12807.614176 2.862853 0.000000
2.862853 -12801.591466 0.000000
0.000000 0.000000 0.000000
-13083.193749 2.302463 0.000000
2.302463 -13076.809493 0.000000
0.000000 0.000000 0.000000
-13564.377851 1.805757 0.000000
1.805757 -13557.753346 0.000000
0.000000 0.000000 0.000000
-13985.736361 1.277420 0.000000
1.277420 -13978.881244 0.000000
0.000000 0.000000 0.000000
-14325.534024 0.658928 0.000000
0.658928 -14318.474467 0.000000
0.000000 0.000000 0.000000
-14731.290950 0.105174 0.000000
0.105174 -14724.081359 0.000000
0.000000 0.000000 0.000000
-15173.044545 -0.551900 0.000000
-0.551900 -15165.679263 0.000000
0.000000 0.000000 0.000000
-15530.469493 -1.204145 0.000000
-1.204145 -15522.878196 0.000000
0.000000 0.000000 0.000000
-15914.045910 -1.909086 0.000000
-1.909086 -15906.294785 0.000000
0.000000 0.000000 0.000000
-16336.894002 -2.613864 0.000000
-2.613864 -16328.931228 0.000000
0.000000 0.000000 0.000000
-16829.648885 -3.380302 0.000000
-3.380302 -16821.479782 0.000000
0.000000 0.000000 0.000000
-17316.889667 -4.167259 0.000000
-4.167259 -17308.526346 0.000000
0.000000 0.000000 0.000000
-6610.322599 11.002699 0.000000
11.002699 -6608.920762 0.000000
0.000000 0.000000 0.000000
-7111.838262 10.498043 0.000000
10.498043 -7110.291411 0.000000
0.000000 0.000000 0.000000
-7599.337284 10.036682 0.000000
10.036682 -7597.570570 0.000000
0.000000 0.000000 0.000000
-8135.794279 9.556294 0.000000
9.556294 -8133.793549 0.000000
0.000000 0.000000 0.000000
-8573.927240 8.999315 0.000000
8.999315 -8571.701993 0.000000
0.000000 0.000000 0.000000
-9103.950911 8.500125 0.000000
8.500125 -9101.478114 0.000000
0.000000 0.000000 0.000000
-9547.218487 8.043805 0.000000
8.043805 -9544.396282 0.000000
0.000000 0.000000 0.000000
-9930.545039 7.543121 0.000000
7.543121 -9927.359819 0.000000
0.000000 0.000000 0.000000
-10342.471655 7.050675 0.000000
7.050675 -10338.928528 0.000000
0.000000 0.000000 0.000000
-10758.934012 6.557052 0.000000
6.557052 -10754.995797 0.000000
0.000000 0.000000 0.000000
-11219.349350 6.099239 0.000000
6.099239 -11215.041361 0.000000
0.000000 0.000000 0.000000
-11634.705039 5.608991 0.000000
5.608991 -11630.056627 0.000000
0.000000 0.000000 0.000000
-12028.793985 5.177802 0.000000
5.177802 -12023.774425 0.000000
0.000000 0.000000 0.000000
-12500.491904 4.744659 0.000000
4.744659 -12495.157139 0.000000
0.000000 0.000000 0.000000
-12907.009933 4.282512 0.000000
4.282512 -12901.361835 0.000000
0.000000 0.000000 0.000000
-13255.311508 3.876570 0.000000
3.876570 -13249.400072 0.000000
0.000000 0.000000 0.000000
-13816.757751 3.433585 0.000000
3.433585 -13810.630562 0.000000
0.000000 0.000000 0.000000
-14088.759201 2.940025 0.000000
2.940025 -14082.396486 0.000000
0.000000 0.000000 0.000000
-14542.181509 2.540845 0.000000
2.540845 -14535.663999 0.000000
0.000000 0.000000 0.000000
-14978.782125 2.044119 0.000000
2.044119 -14972.118145 0.000000
0.000000 0.000000 0.000000
-15339.021472 1.535633 0.000000
1.535633 -15332.154438 0.000000
0.000000 0.000000 0.000000
-15817.964806 1.035424 0.000000
1.035424 -15811.029907 0.000000
0.000000 0.000000 0.000000
-16291.342201 0.391796 0.000000
0.391796 -16284.255341 0.000000
0.000000 0.000000 0.000000
-16664.079306 -0.172627 0.000000
-0.172627 -16656.822732 0.000000
0.000000 0.000000 0.000000
-17173.897037 -0.849805 0.000000
-0.849805 -17166.626901 0.000000
0.000000 0.000000 0.000000
-17578.267540 -1.553464 0.000000
-1.553464 -17570.861066 0.000000
0.000000 0.000000 0.000000
-17943.944371 -2.284961 0.000000
-2.284961 -17936.428354 0.000000
0.000000 0.000000 0.000000
-18384.525336 -3.065311 0.000000
-3.065311 -18376.865098 0.000000
0.000000 0.000000 0.000000
-18689.107226 -3.874751 0.000000
-3.874751 -18681.236822 0.000000
0.000000 0.000000 0.000000
-8134.545192 10.859908 0.000000
10.859908 -8132.858349 0.000000
0.000000 0.000000 0.000000
-8623.887401 10.377876 0.000000
10.377876 -8621.929318 0.000000
0.000000 0.000000 0.000000
-9137.156885 9.876513 0.000000
9.876513 -9134.933321 0.000000
0.000000 0.000000 0.000000
-9658.311826 9.346691 0.000000
9.346691 -9655.891986 0.000000
0.000000 0.000000 0.000000
-10179.061178 8.860923 0.000000
8.860923 -10176.378133 0.000000
0.000000 0.000000 0.000000
-10619.996579 8.391118 0.000000
8.391118 -10616.966022 0.000000
0.000000 0.000000 0.000000
-11160.629894 7.913631 0.000000
7.913631 -11157.292065 0.000000
0.000000 0.000000 0.000000
-11645.805382 7.417257 0.000000
7.417257 -11642.117374 0.000000
0.000000 0.000000 0.000000
-11979.545456 6.967754 0.000000
6.967754 -11975.450697 0.000000
0.000000 0.000000 0.000000
-12457.545771 6.513456 0.000000
6.513456 -12453.107322 0.000000
0.000000 0.000000 0.000000
-12808.394122 6.058689 0.000000
6.058689 -12803.577688 0.000000
0.000000 0.000000 0.000000
-13124.722163 5.661060 0.000000
5.661060 -13119.495671 0.000000
0.000000 0.000000 0.000000
-13600.586768 5.227948 0.000000
5.227948 -13595.017433 0.000000
0.000000 0.000000 0.000000
-13932.700750 4.840074 0.000000
4.840074 -13926.744158 0.000000
0.000000 0.000000 0.000000
-14274.373954 4.456834 0.000000
4.456834 -14268.090072 0.000000
0.000000 0.000000 0.000000
-14763.689988 4.036439 0.000000
4.036439 -14757.136295 0.000000
0.000000 0.000000 0.000000
-15121.273334 3.650795 0.000000
3.650795 -15114.524966 0.000000
0.000000 0.000000 0.000000
-15624.580837 3.243312 0.000000
3.243312 -15617.718364 0.000000
0.000000 0.000000 0.000000
-16022.448964 2.794542 0.000000
2.794542 -16015.455572 0.000000
0.000000 0.000000 0.000000
-16465.190372 2.344826 0.000000
2.344826 -16458.144314 0.000000
0.000000 0.000000 0.000000
-17022.880496 1.868514 0.000000
1.868514 -17015.856051 0.000000
0.000000 0.000000 0.000000
-17533.161293 1.284985 0.000000
1.284985 -17526.162174 0.000000
0.000000 0.000000 0.000000
-17966.272551 0.762460 0.000000
0.762460 -17959.308536 0.000000
0.000000 0.000000 0.000000
-18554.060640 0.140111 0.000000
0.140111 -18547.159999 0.000000
0.000000 0.000000 0.000000
-19051.405758 -0.507439 0.000000
-0.507439 -19044.503853 0.000000
0.000000 0.000000 0.000000
-19442.037137 -1.218674 0.000000
-1.218674 -19435.122476 0.000000
0.000000 0.000000 0.000000
-20052.417634 -1.954069 0.000000
-1.954069 -20045.491952 0.000000
0.000000 0.000000 0.000000
-20543.534823 -2.752368 0.000000
-2.752368 -20536.587419 0.000000
0.000000 0.000000 0.000000
-20929.381573 -3.536646 0.000000
-3.536646 -20922.332304 0.000000
0.000000 0.000000 0.000000
-9956.052885 10.664144 0.000000
10.664144 -9953.987367 0.000000
0.000000 0.000000 0.000000
-10464.563758 10.167945 0.000000
10.167945 -10462.263913 0.000000
0.000000 0.000000 0.000000
-10978.747586 9.627941 0.000000
9.627941 -10976.237129 0.000000
0.000000 0.000000 0.000000
-11353.419682 9.137836 0.000000
9.137836 -11350.540254 0.000000
0.000000 0.000000 0.000000
-11832.154736 8.649487 0.000000
8.649487 -11828.899296 0.000000
0.000000 0.000000 0.000000
-12373.441896 8.166478 0.000000
8.166478 -12369.835147 0.000000
0.000000 0.000000 0.000000
-12765.019384 7.721667 0.000000
7.721667 -12761.016759 0.000000
0.000000 0.000000 0.000000
-13218.981917 7.284603 0.000000
7.284603 -13214.525601 0.000000
0.000000 0.000000 0.000000
-13758.770311 6.877558 0.000000
6.877558 -13753.900902 0.000000
0.000000 0.000000 0.000000
-14081.022993 6.471305 0.000000
6.471305 -14075.706766 0.000000
0.000000 0.000000 0.000000
-14511.145549 6.097170 0.000000
6.097170 -14505.410677 0.000000
0.000000 0.000000 0.000000
-15007.610195 5.717503 0.000000
5.717503 -15001.539738 0.000000
0.000000 0.000000 0.000000
-15291.106419 5.408731 0.000000
5.408731 -15284.660520 0.000000
0.000000 0.000000 0.000000
-15679.855635 5.021684 0.000000
5.021684 -15673.121661 0.000000
0.000000 0.000000 0.000000
-16067.858734 4.696751 0.000000
4.696751 -16060.920628 0.000000
0.000000 0.000000 0.000000
-16497.107507 4.346325 0.000000
4.346325 -16490.044133 0.000000
0.000000 0.000000 0.000000
-16898.426840 3.975414 0.000000
3.975414 -16891.247688 0.000000
0.000000 0.000000 0.000000
-17319.418323 3.595945 0.000000
3.595945 -17312.189170 0.000000
0.000000 0.000000 0.000000
-17669.069505 3.174409 0.000000
3.174409 -17661.869447 0.000000
0.000000 0.000000 0.000000
-18208.434201 2.763956 0.000000
2.763956 -18201.322747 0.000000
0.000000 0.000000 0.000000
-18644.468898 2.206823 0.000000
2.206823 -18637.522502 0.000000
0.000000 0.000000 0.000000
-19048.806272 1.745308 0.000000
1.745308 -19042.001556 0.000000
0.000000 0.000000 0.000000
-19667.306870 1.118925 0.000000
1.118925 -19660.687931 0.000000
0.000000 0.000000 0.000000
-20127.451613 0.519148 0.000000
0.519148 -20120.984314 0.000000
0.000000 0.000000 0.000000
-20712.921023 -0.165120 0.000000
-0.165120 -20706.556116 0.000000
0.000000 0.000000 0.000000
-21302.044496 -0.866163 0.000000
-0.866163 -21295.818297 0.000000
0.000000 0.000000 0.000000
-21811.860738 -1.617221 0.000000
-1.617221 -21805.654443 0.000000
0.000000 0.000000 0.000000
-22149.744192 -2.388193 0.000000
-2.388193 -22143.420876 0.000000
0.000000 0.000000 0.000000
-22851.745716 -3.181460 0.000000
-3.181460 -22845.394243 0.000000
0.000000 0.000000 0.000000
-12036.057341 10.373190 0.000000
10.373190 -12033.755376 0.000000
0.000000 0.000000 0.000000
-12388.861093 9.839319 0.000000
9.839319 -12386.244165 0.000000
0.000000 0.000000 0.000000
-12831.557301 9.319983 0.000000
9.319983 -12828.558990 0.000000
0.000000 0.000000 0.000000
-13428.160444 8.844722 0.000000
8.844722 -13424.781230 0.000000
0.000000 0.000000 0.000000
-13797.032694 8.361253 0.000000
8.361253 -13793.182884 0.000000
0.000000 0.000000 0.000000
-14108.159249 7.871003 0.000000
7.871003 -14103.817814 0.000000
0.000000 0.000000 0.000000
-14583.282842 7.426449 0.000000
7.426449 -14578.489449 0.000000
0.000000 0.000000 0.000000
-14986.204212 7.050031 0.000000
7.050031 -14980.924965 0.000000
0.000000 0.000000 0.000000
-15254.181255 6.653287 0.000000
6.653287 -15248.375489 0.000000
0.000000 0.000000 0.000000
-15657.657672 6.305644 0.000000
6.305644 -15651.410247 0.000000
0.000000 0.000000 0.000000
-16020.256747 6.031310 0.000000
6.031310 -16013.623773 0.000000
0.000000 0.000000 0.000000
-16320.992859 5.739613 0.000000
5.739613 -16313.992553 0.000000
0.000000 0.000000 0.000000
-16696.061044 5.468386 0.000000
5.468386 -16688.812977 0.000000
0.000000 0.000000 0.000000
-17075.532048 5.224174 0.000000
5.224174 -17068.071803 0.000000
0.000000 0.000000 0.000000
-17452.629385 4.943628 0.000000
4.943628 -17445.035370 0.000000
0.000000 0.000000 0.000000
-17871.267303 4.662248 0.000000
4.662248 -17863.649046 0.000000
0.000000 0.000000 0.000000
-18376.450677 4.366602 0.000000
4.366602 -18368.890171 0.000000
0.000000 0.000000 0.000000
-18749.257728 4.045222 0.000000
4.045222 -18741.768221 0.000000
0.000000 0.000000 0.000000
-19374.721660 3.657529 0.000000
3.657529 -19367.429039 0.000000
0.000000 0.000000 0.000000
-19854.800959 3.223889 0.000000
3.223889 -19847.705377 0.000000
0.000000 0.000000 0.000000
-20474.904047 2.772234 0.000000
2.772234 -20468.045294 0.000000
0.000000 0.000000 0.000000
-21047.697531 2.214638 0.000000
2.214638 -21041.099763 0.000000
0.000000 0.000000 0.000000
-21620.818652 1.636592 0.000000
1.636592 -21614.507018 0.000000
0.000000 0.000000 0.000000
-22265.952020 1.003575 0.000000
1.003575 -22259.866660 0.000000
0.000000 0.000000 0.000000
-22830.944449 0.315460 0.000000
0.315460 -22825.154844 0.000000
0.000000 0.000000 0.000000
-23512.942338 -0.441529 0.000000
-0.441529 -23507.326207 0.000000
0.000000 0.000000 0.000000
-24059.371525 -1.246144 0.000000
-1.246144 -24053.853514 0.000000
0.000000 0.000000 0.000000
-24768.477579 -2.055515 0.000000
-2.055515 -24763.042000 0.000000
0.000000 0.000000 0.000000
-25086.198661 -2.832627 0.000000
-2.832627 -25080.557282 0.000000
0.000000 0.000000 0.000000
-13979.814474 9.924639 0.000000
9.924639 -13977.173485 0.000000
0.000000 0.000000 0.000000
-14445.877121 9.407020 0.000000
9.407020 -14442.851674 0.000000
0.000000 0.000000 0.000000
-15025.509192 8.937162 0.000000
8.937162 -15022.083859 0.000000
0.000000 0.000000 0.000000
-15376.937624 8.438279 0.000000
8.438279 -15372.967798 0.000000
0.000000 0.000000 0.000000
-15849.102732 7.970799 0.000000
7.970799 -15844.616391 0.000000
0.000000 0.000000 0.000000
-16147.811820 7.557735 0.000000
7.557735 -16142.722998 0.000000
0.000000 0.000000 0.000000
-16433.268270 7.156588 0.000000
7.156588 -16427.541311 0.000000
0.000000 0.000000 0.000000
-16793.464778 6.835825 0.000000
6.835825 -16787.162170 0.000000
0.000000 0.000000 0.000000
-17063.999203 6.559066 0.000000
6.559066 -17057.113630 0.000000
0.000000 0.000000 0.000000
-17331.305792 6.312794 0.000000
6.312794 -17323.846357 0.000000
0.000000 0.000000 0.000000
-17656.919729 6.108795 0.000000
6.108795 -17649.051514 0.000000
0.000000 0.000000 0.000000
-17948.280157 5.901386 0.000000
5.901386 -17940.106410 0.000000
0.000000 0.000000 0.000000
-18167.918807 5.717020 0.000000
5.717020 -18159.520039 0.000000
0.000000 0.000000 0.000000
-18524.236831 5.532341 0.000000
5.532341 -18515.794015 0.000000
0.000000 0.000000 0.000000
-18960.355897 5.307597 0.000000
5.307597 -18951.987695 0.000000
0.000000 0.000000 0.000000
-19338.043798 5.073310 0.000000
5.073310 -19329.789155 0.000000
0.000000 0.000000 0.000000
-19828.901308 4.818729 0.000000
4.818729 -19820.859629 0.000000
0.000000 0.000000 0.000000
-20332.683891 4.481179 0.000000
4.481179 -20324.929872 0.000000
0.000000 0.000000 0.000000
-20886.542039 4.095341 0.000000
4.095341 -20879.099231 0.000000
0.000000 0.000000 0.000000
-21554.838456 3.719417 0.000000
3.719417 -21547.786891 0.000000
0.000000 0.000000 0.000000
-22127.184812 3.235662 0.000000
3.235662 -22120.561477 0.000000
0.000000 0.000000 0.000000
-22831.650108 2.681302 0.000000
2.681302 -22825.413713 0.000000
0.000000 0.000000 0.000000
-23517.626358 2.142962 0.000000
2.142962 -23511.846723 0.000000
0.000000 0.000000 0.000000
-24235.482698 1.490138 0.000000
1.490138 -24230.115290 0.000000
0.000000 0.000000 0.000000
-24994.934993 0.761943 0.000000
0.761943 -24989.891228 0.000000
0.000000 0.000000 0.000000
-25598.166006 0.014369 0.000000
0.014369 -25593.452461 0.000000
0.000000 0.000000 0.000000
-26375.846914 -0.767965 0.000000
-0.767965 -26371.345678 0.000000
0.000000 0.000000 0.000000
-27004.016776 -1.679092 0.000000
-1.679092 -26999.461131 0.000000
0.000000 0.000000 0.000000
-27692.764139 -2.628604 0.000000
-2.628604 -27688.063782 0.000000
0.000000 0.000000 0.000000
-16415.211697 9.350746 0.000000
9.350746 -16412.278983 0.000000
0.000000 0.000000 0.000000
-16587.380742 8.800241 0.000000
8.800241 -16583.853420 0.000000
0.000000 0.000000 0.000000
-17166.435385 8.320139 0.000000
8.320139 -17162.362296 0.000000
0.000000 0.000000 0.000000
-17508.818784 7.862448 0.000000
7.862448 -17504.003674 0.000000
0.000000 0.000000 0.000000
-17702.558431 7.437326 0.000000
7.437326 -17696.915751 0.000000
0.000000 0.000000 0.000000
-18061.833871 7.094836 0.000000
7.094836 -18055.431985 0.000000
0.000000 0.000000 0.000000
-18347.352233 6.829649 0.000000
6.829649 -18340.228292 0.000000
0.000000 0.000000 0.000000
-18394.406682 6.623404 0.000000
6.623404 -18386.593633 0.000000
0.000000 0.000000 0.000000
-18518.356653 6.522177 0.000000
6.522177 -18509.994732 0.000000
0.000000 0.000000 0.000000
-18825.330910 6.403322 0.000000
6.403322 -18816.579598 0.000000
0.000000 0.000000 0.000000
-19031.985347 6.327684 0.000000
6.327684 -19022.903626 0.000000
0.000000 0.000000 0.000000
-19324.515270 6.240583 0.000000
6.240583 -19315.330613 0.000000
0.000000 0.000000 0.000000
-19556.854277 6.077323 0.000000
6.077323 -19547.640932 0.000000
0.000000 0.000000 0.000000
-19929.583541 5.916446 0.000000
5.916446 -19920.450403 0.000000
0.000000 0.000000 0.000000
-20300.475498 5.756096 0.000000
5.756096 -20291.517258 0.000000
0.000000 0.000000 0.000000
-20854.370632 5.487947 0.000000
5.487947 -20845.667785 0.000000
0.000000 0.000000 0.000000
-21338.036012 5.218328 0.000000
5.218328 -21329.597125 0.000000
0.000000 0.000000 0.000000
-21972.077000 4.930338 0.000000
4.930338 -21964.037204 0.000000
0.000000 0.000000 0.000000
-22611.522749 4.606030 0.000000
4.606030 -22603.894206 0.000000
0.000000 0.000000 0.000000
-23364.592243 4.182040 0.000000
4.182040 -23357.383158 0.000000
0.000000 0.000000 0.000000
-24087.009681 3.784735 0.000000
3.784735 -24080.293233 0.000000
0.000000 0.000000 0.000000
-24979.347289 3.305395 0.000000
3.305395 -24973.190796 0.000000
0.000000 0.000000 0.000000
-25835.989265 2.739208 0.000000
2.739208 -25830.249758 0.000000
0.000000 0.000000 0.000000
-26688.056099 2.145207 0.000000
2.145207 -26682.894147 0.000000
0.000000 0.000000 0.000000
-27649.007458 1.450465 0.000000
1.450465 -27644.332734 0.000000
0.000000 0.000000 0.000000
-28713.541546 0.645838 0.000000
0.645838 -28709.229814 0.000000
0.000000 0.000000 0.000000
-29522.891025 -0.270382 0.000000
-0.270382 -29518.824970 0.000000
0.000000 0.000000 0.000000
-30193.640518 -1.153888 0.000000
-1.153888 -30189.692250 0.000000
0.000000 0.000000 0.000000
-30937.644346 -2.156970 0.000000
-2.156970 -30933.356015 0.000000
0.000000 0.000000 0.000000
-18999.970448 8.459674 0.000000
8.459674 -18996.769394 0.000000
0.000000 0.000000 0.000000
-19167.788075 7.894857 0.000000
7.894857 -19163.766158 0.000000
0.000000 0.000000 0.000000
-19419.962882 7.375780 0.000000
7.375780 -19415.032033 0.000000
0.000000 0.000000 0.000000
-19418.141701 6.987586 0.000000
6.987586 -19412.071923 0.000000
0.000000 0.000000 0.000000
-19581.103116 6.800712 0.000000
6.800712 -19573.935350 0.000000
0.000000 0.000000 0.000000
-19556.013857 6.672465 0.000000
6.672465 -19547.804842 0.000000
0.000000 0.000000 0.000000
-19519.072557 6.626428 0.000000
6.626428 -19510.023123 0.000000
0.000000 0.000000 0.000000
-19627.123152 6.599894 0.000000
6.599894 -19617.589920 0.000000
0.000000 0.000000 0.000000
-19548.583272 6.601892 0.000000
6.601892 -19538.702885 0.000000
0.000000 0.000000 0.000000
-19746.426560 6.613574 0.000000
6.613574 -19736.436668 0.000000
0.000000 0.000000 0.000000
-19941.007285 6.533535 0.000000
6.533535 -19930.981661 0.000000
0.000000 0.000000 0.000000
-20167.111450 6.434557 0.000000
6.434557 -20157.100236 0.000000
0.000000 0.000000 0.000000
-20636.586713 6.305946 0.000000
6.305946 -20626.737789 0.000000
0.000000 0.000000 0.000000
-21005.048637 6.102401 0.000000
6.102401 -20995.283854 0.000000
0.000000 0.000000 0.000000
-21596.222835 5.936034 0.000000
5.936034 -21586.631619 0.000000
0.000000 0.000000 0.000000
-22042.730424 5.730831 0.000000
5.730831 -22033.321286 0.000000
0.000000 0.000000 0.000000
-22855.351856 5.496646 0.000000
5.496646 -22846.264660 0.000000
0.000000 0.000000 0.000000
-23383.217659 5.219863 0.000000
5.219863 -23374.309777 0.000000
0.000000 0.000000 0.000000
-24362.273344 4.957701 0.000000
4.957701 -24353.817191 0.000000
0.000000 0.000000 0.000000
-25356.675483 4.627853 0.000000
4.627853 -25348.676021 0.000000
0.000000 0.000000 0.000000
-26140.344178 4.274752 0.000000
4.274752 -26132.719229 0.000000
0.000000 0.000000 0.000000
-27243.566731 3.938410 0.000000
3.938410 -27236.589037 0.000000
0.000000 0.000000 0.000000
-28602.607746 3.491763 0.000000
3.491763 -28596.390851 0.000000
0.000000 0.000000 0.000000
-29434.469797 2.894387 0.000000
2.894387 -29428.739237 0.000000
0.000000 0.000000 0.000000
-30951.205103 2.364538 0.000000
2.364538 -30946.415654 0.000000
0.000000 0.000000 0.000000
-32056.285696 1.640170 0.000000
1.640170 -32052.267996 0.000000
0.000000 0.000000 0.000000
-33375.733339 0.748642 0.000000
0.748642 -33372.314085 0.000000
0.000000 0.000000 0.000000
-34909.329943 -0.375816 0.000000
-0.375816 -34906.420594 0.000000
0.000000 0.000000 0.000000
-35616.909380 -1.653912 0.000000
-1.653912 -35613.840788 0.000000
0.000000 0.000000 0.000000
-21803.958150 6.998435 0.000000
6.998435 -21800.325216 0.000000
0.000000 0.000000 0.000000
-21306.860894 6.370361 0.000000
6.370361 -21301.432055 0.000000
0.000000 0.000000 0.000000
-21076.060440 6.182653 0.000000
6.182653 -21068.943375 0.000000
0.000000 0.000000 0.000000
-20679.043862 6.261099 0.000000
6.261099 -20670.679352 0.000000
0.000000 0.000000 0.000000
-20116.480836 6.396956 0.000000
6.396956 -20107.259189 0.000000
0.000000 0.000000 0.000000
-19980.905572 6.482134 0.000000
6.482134 -19971.253688 0.000000
0.000000 0.000000 0.000000
-19836.924264 6.466065 0.000000
6.466065 -19826.943341 0.000000
0.000000 0.000000 0.000000
-19688.612995 6.411321 0.000000
6.411321 -19678.263310 0.000000
0.000000 0.000000 0.000000
-19947.674599 6.355769 0.000000
6.355769 -19937.143614 0.000000
0.000000 0.000000 0.000000
-20174.053089 6.238970 0.000000
6.238970 -20163.381956 0.000000
0.000000 0.000000 0.000000
-20584.486738 6.086091 0.000000
6.086091 -20573.678467 0.000000
0.000000 0.000000 0.000000
-20965.410759 5.980628 0.000000
5.980628 -20954.462427 0.000000
0.000000 0.000000 0.000000
-21534.444276 5.848402 0.000000
5.848402 -21523.492712 0.000000
0.000000 0.000000 0.000000
-21899.804518 5.691376 0.000000
5.691376 -21888.713277 0.000000
0.000000 0.000000 0.000000
-22729.197767 5.576227 0.000000
5.576227 -22718.152209 0.000000
0.000000 0.000000 0.000000
-23403.928650 5.420900 0.000000
5.420900 -23392.929838 0.000000
0.000000 0.000000 0.000000
-24297.876957 5.255142 0.000000
5.255142 -24287.027890 0.000000
0.000000 0.000000 0.000000
-25239.456038 5.086628 0.000000
5.086628 -25228.742040 0.000000
0.000000 0.000000 0.000000
-25914.049121 4.937959 0.000000
4.937959 -25903.415550 0.000000
0.000000 0.000000 0.000000
-27135.739926 4.803613 0.000000
4.803613 -27125.494378 0.000000
0.000000 0.000000 0.000000
-28435.161776 4.603930 0.000000
4.603930 -28425.329975 0.000000
0.000000 0.000000 0.000000
-29836.798563 4.395678 0.000000
4.395678 -29827.399689 0.000000
0.000000 0.000000 0.000000
-31050.453636 4.156586 0.000000
4.156586 -31041.585787 0.000000
0.000000 0.000000 0.000000
-33182.893407 3.905211 0.000000
3.905211 -33174.855539 0.000000
0.000000 0.000000 0.000000
-34942.762314 3.512541 0.000000
3.512541 -34935.326966 0.000000
0.000000 0.000000 0.000000
-37137.028564 2.961013 0.000000
2.961013 -37130.442290 0.000000
0.000000 0.000000 0.000000
-39639.366912 2.362876 0.000000
2.362876 -39633.846492 0.000000
0.000000 0.000000 0.000000
-42260.454660 1.442626 0.000000
1.442626 -42255.944499 0.000000
0.000000 0.000000 0.000000
-45649.290757 -0.074798 0.000000
-0.074798 -45646.027561 0.000000
0.000000 0.000000 0.000000
