# vtk DataFile Version 2.0
cook_membrance_guass3
ASCII
DATASET POLYDATA
POINTS 231 float
0.000000 0.000000 0.000000
48.000000 44.000000 0.000000
48.000000 60.000000 0.000000
0.000000 44.000000 0.000000
3.668233 3.362546 0.000000
7.161787 6.564972 0.000000
10.488982 9.614901 0.000000
13.657740 12.519595 0.000000
16.675604 15.285970 0.000000
19.549760 17.920613 0.000000
22.287051 20.429797 0.000000
24.893996 22.819496 0.000000
27.376800 25.095400 0.000000
29.741375 27.262927 0.000000
31.993352 29.327239 0.000000
34.138092 31.293251 0.000000
36.180701 33.165642 0.000000
38.126043 34.948873 0.000000
39.978749 36.647187 0.000000
41.743232 38.264629 0.000000
43.423692 39.805051 0.000000
45.024129 41.272119 0.000000
46.548356 42.669326 0.000000
48.000000 45.600000 0.000000
48.000000 47.200000 0.000000
48.000000 48.800000 0.000000
48.000000 50.400000 0.000000
48.000000 52.000000 0.000000
48.000000 53.600000 0.000000
48.000000 55.200000 0.000000
48.000000 56.800000 0.000000
48.000000 58.400000 0.000000
46.548356 59.516119 0.000000
45.024129 59.008043 0.000000
43.423692 58.474564 0.000000
41.743232 57.914411 0.000000
39.978749 57.326250 0.000000
38.126043 56.708681 0.000000
36.180701 56.060234 0.000000
34.138092 55.379364 0.000000
31.993352 54.664451 0.000000
29.741375 53.913792 0.000000
27.376800 53.125600 0.000000
24.893996 52.297999 0.000000
22.287051 51.429017 0.000000
19.549760 50.516587 0.000000
16.675604 49.558535 0.000000
13.657740 48.552580 0.000000
10.488982 47.496327 0.000000
7.161787 46.387262 0.000000
3.668233 45.222744 0.000000
0.000000 39.600000 0.000000
0.000000 35.200000 0.000000
0.000000 30.800000 0.000000
0.000000 26.400000 0.000000
0.000000 22.000000 0.000000
0.000000 17.600000 0.000000
0.000000 13.200000 0.000000
0.000000 8.800000 0.000000
0.000000 4.400000 0.000000
3.668233 7.548566 0.000000
3.668233 11.734586 0.000000
3.668233 15.920606 0.000000
3.668233 20.106626 0.000000
3.668233 24.292645 0.000000
3.668233 28.478665 0.000000
3.668233 32.664685 0.000000
3.668233 36.850705 0.000000
3.668233 41.036724 0.000000
7.161787 10.547201 0.000000
7.161787 14.529430 0.000000
7.161787 18.511659 0.000000
7.161787 22.493888 0.000000
7.161787 26.476117 0.000000
7.161787 30.458346 0.000000
7.161787 34.440575 0.000000
7.161787 38.422804 0.000000
7.161787 42.405033 0.000000
10.488982 13.403043 0.000000
10.488982 17.191186 0.000000
10.488982 20.979329 0.000000
10.488982 24.767471 0.000000
10.488982 28.555614 0.000000
10.488982 32.343757 0.000000
10.488982 36.131899 0.000000
10.488982 39.920042 0.000000
10.488982 43.708185 0.000000
13.657740 16.122893 0.000000
13.657740 19.726192 0.000000
13.657740 23.329490 0.000000
13.657740 26.932789 0.000000
13.657740 30.536087 0.000000
13.657740 34.139386 0.000000
13.657740 37.742684 0.000000
13.657740 41.345983 0.000000
13.657740 44.949281 0.000000
16.675604 18.713226 0.000000
16.675604 22.140483 0.000000
16.675604 25.567739 0.000000
16.675604 28.994996 0.000000
16.675604 32.422252 0.000000
16.675604 35.849509 0.000000
16.675604 39.276765 0.000000
16.675604 42.704022 0.000000
16.675604 46.131278 0.000000
19.549760 21.180211 0.000000
19.549760 24.439808 0.000000
19.549760 27.699405 0.000000
19.549760 30.959003 0.000000
19.549760 34.218600 0.000000
19.549760 37.478197 0.000000
19.549760 40.737795 0.000000
19.549760 43.997392 0.000000
19.549760 47.256989 0.000000
22.287051 23.529719 0.000000
22.287051 26.629641 0.000000
22.287051 29.729563 0.000000
22.287051 32.829485 0.000000
22.287051 35.929407 0.000000
22.287051 39.029329 0.000000
22.287051 42.129251 0.000000
22.287051 45.229173 0.000000
22.287051 48.329095 0.000000
24.893996 25.767346 0.000000
24.893996 28.715197 0.000000
24.893996 31.663047 0.000000
24.893996 34.610897 0.000000
24.893996 37.558747 0.000000
24.893996 40.506598 0.000000
24.893996 43.454448 0.000000
24.893996 46.402298 0.000000
24.893996 49.350148 0.000000
27.376800 27.898420 0.000000
27.376800 30.701440 0.000000
27.376800 33.504460 0.000000
27.376800 36.307480 0.000000
27.376800 39.110500 0.000000
27.376800 41.913520 0.000000
27.376800 44.716540 0.000000
27.376800 47.519560 0.000000
27.376800 50.322580 0.000000
29.741375 29.928014 0.000000
29.741375 32.593100 0.000000
29.741375 35.258187 0.000000
29.741375 37.923273 0.000000
29.741375 40.588360 0.000000
29.741375 43.253446 0.000000
29.741375 45.918532 0.000000
29.741375 48.583619 0.000000
29.741375 51.248705 0.000000
31.993352 31.860960 0.000000
31.993352 34.394682 0.000000
31.993352 36.928403 0.000000
31.993352 39.462124 0.000000
31.993352 41.995845 0.000000
31.993352 44.529566 0.000000
31.993352 47.063287 0.000000
31.993352 49.597008 0.000000
31.993352 52.130730 0.000000
34.138092 33.701862 0.000000
34.138092 36.110473 0.000000
34.138092 38.519085 0.000000
34.138092 40.927696 0.000000
34.138092 43.336307 0.000000
34.138092 45.744919 0.000000
34.138092 48.153530 0.000000
34.138092 50.562141 0.000000
34.138092 52.970753 0.000000
36.180701 35.455101 0.000000
36.180701 37.744561 0.000000
36.180701 40.034020 0.000000
36.180701 42.323479 0.000000
36.180701 44.612938 0.000000
36.180701 46.902397 0.000000
36.180701 49.191856 0.000000
36.180701 51.481315 0.000000
36.180701 53.770774 0.000000
38.126043 37.124853 0.000000
38.126043 39.300834 0.000000
38.126043 41.476815 0.000000
38.126043 43.652796 0.000000
38.126043 45.828777 0.000000
38.126043 48.004758 0.000000
38.126043 50.180738 0.000000
38.126043 52.356719 0.000000
38.126043 54.532700 0.000000
39.978749 38.715093 0.000000
39.978749 40.783000 0.000000
39.978749 42.850906 0.000000
39.978749 44.918812 0.000000
39.978749 46.986718 0.000000
39.978749 49.054625 0.000000
39.978749 51.122531 0.000000
39.978749 53.190437 0.000000
39.978749 55.258344 0.000000
41.743232 40.229608 0.000000
41.743232 42.194586 0.000000
41.743232 44.159564 0.000000
41.743232 46.124542 0.000000
41.743232 48.089520 0.000000
41.743232 50.054498 0.000000
41.743232 52.019476 0.000000
41.743232 53.984454 0.000000
41.743232 55.949433 0.000000
43.423692 41.672002 0.000000
43.423692 43.538953 0.000000
43.423692 45.405905 0.000000
43.423692 47.272856 0.000000
43.423692 49.139807 0.000000
43.423692 51.006759 0.000000
43.423692 52.873710 0.000000
43.423692 54.740661 0.000000
43.423692 56.607613 0.000000
45.024129 43.045711 0.000000
45.024129 44.819304 0.000000
45.024129 46.592896 0.000000
45.024129 48.366488 0.000000
45.024129 50.140081 0.000000
45.024129 51.913673 0.000000
45.024129 53.687266 0.000000
45.024129 55.460858 0.000000
45.024129 57.234451 0.000000
46.548356 44.354005 0.000000
46.548356 46.038685 0.000000
46.548356 47.723364 0.000000
46.548356 49.408043 0.000000
46.548356 51.092722 0.000000
46.548356 52.777402 0.000000
46.548356 54.462081 0.000000
46.548356 56.146760 0.000000
46.548356 57.831439 0.000000
POLYGONS 400 1600
3 0 4 59
3 59 4 60
3 59 60 58
3 58 60 61
3 58 61 57
3 57 61 62
3 57 62 56
3 56 62 63
3 56 63 55
3 55 63 64
3 55 64 54
3 54 64 65
3 54 65 53
3 53 65 66
3 53 66 52
3 52 66 67
3 52 67 51
3 51 67 68
3 51 68 3
3 3 68 50
3 4 5 60
3 60 5 69
3 60 69 61
3 61 69 70
3 61 70 62
3 62 70 71
3 62 71 63
3 63 71 72
3 63 72 64
3 64 72 73
3 64 73 65
3 65 73 74
3 65 74 66
3 66 74 75
3 66 75 67
3 67 75 76
3 67 76 68
3 68 76 77
3 68 77 50
3 50 77 49
3 5 6 69
3 69 6 78
3 69 78 70
3 70 78 79
3 70 79 71
3 71 79 80
3 71 80 72
3 72 80 81
3 72 81 73
3 73 81 82
3 73 82 74
3 74 82 83
3 74 83 75
3 75 83 84
3 75 84 76
3 76 84 85
3 76 85 77
3 77 85 86
3 77 86 49
3 49 86 48
3 6 7 78
3 78 7 87
3 78 87 79
3 79 87 88
3 79 88 80
3 80 88 89
3 80 89 81
3 81 89 90
3 81 90 82
3 82 90 91
3 82 91 83
3 83 91 92
3 83 92 84
3 84 92 93
3 84 93 85
3 85 93 94
3 85 94 86
3 86 94 95
3 86 95 48
3 48 95 47
3 7 8 87
3 87 8 96
3 87 96 88
3 88 96 97
3 88 97 89
3 89 97 98
3 89 98 90
3 90 98 99
3 90 99 91
3 91 99 100
3 91 100 92
3 92 100 101
3 92 101 93
3 93 101 102
3 93 102 94
3 94 102 103
3 94 103 95
3 95 103 104
3 95 104 47
3 47 104 46
3 8 9 96
3 96 9 105
3 96 105 97
3 97 105 106
3 97 106 98
3 98 106 107
3 98 107 99
3 99 107 108
3 99 108 100
3 100 108 109
3 100 109 101
3 101 109 110
3 101 110 102
3 102 110 111
3 102 111 103
3 103 111 112
3 103 112 104
3 104 112 113
3 104 113 46
3 46 113 45
3 9 10 105
3 105 10 114
3 105 114 106
3 106 114 115
3 106 115 107
3 107 115 116
3 107 116 108
3 108 116 117
3 108 117 109
3 109 117 118
3 109 118 110
3 110 118 119
3 110 119 111
3 111 119 120
3 111 120 112
3 112 120 121
3 112 121 113
3 113 121 122
3 113 122 45
3 45 122 44
3 10 11 114
3 114 11 123
3 114 123 115
3 115 123 124
3 115 124 116
3 116 124 125
3 116 125 117
3 117 125 126
3 117 126 118
3 118 126 127
3 118 127 119
3 119 127 128
3 119 128 120
3 120 128 129
3 120 129 121
3 121 129 130
3 121 130 122
3 122 130 131
3 122 131 44
3 44 131 43
3 11 12 123
3 123 12 132
3 123 132 124
3 124 132 133
3 124 133 125
3 125 133 134
3 125 134 126
3 126 134 135
3 126 135 127
3 127 135 136
3 127 136 128
3 128 136 137
3 128 137 129
3 129 137 138
3 129 138 130
3 130 138 139
3 130 139 131
3 131 139 140
3 131 140 43
3 43 140 42
3 12 13 132
3 132 13 141
3 132 141 133
3 133 141 142
3 133 142 134
3 134 142 143
3 134 143 135
3 135 143 144
3 135 144 136
3 136 144 145
3 136 145 137
3 137 145 146
3 137 146 138
3 138 146 147
3 138 147 139
3 139 147 148
3 139 148 140
3 140 148 149
3 140 149 42
3 42 149 41
3 13 14 141
3 141 14 150
3 141 150 142
3 142 150 151
3 142 151 143
3 143 151 152
3 143 152 144
3 144 152 153
3 144 153 145
3 145 153 154
3 145 154 146
3 146 154 155
3 146 155 147
3 147 155 156
3 147 156 148
3 148 156 157
3 148 157 149
3 149 157 158
3 149 158 41
3 41 158 40
3 14 15 150
3 150 15 159
3 150 159 151
3 151 159 160
3 151 160 152
3 152 160 161
3 152 161 153
3 153 161 162
3 153 162 154
3 154 162 163
3 154 163 155
3 155 163 164
3 155 164 156
3 156 164 165
3 156 165 157
3 157 165 166
3 157 166 158
3 158 166 167
3 158 167 40
3 40 167 39
3 15 16 159
3 159 16 168
3 159 168 160
3 160 168 169
3 160 169 161
3 161 169 170
3 161 170 162
3 162 170 171
3 162 171 163
3 163 171 172
3 163 172 164
3 164 172 173
3 164 173 165
3 165 173 174
3 165 174 166
3 166 174 175
3 166 175 167
3 167 175 176
3 167 176 39
3 39 176 38
3 16 17 168
3 168 17 177
3 168 177 169
3 169 177 178
3 169 178 170
3 170 178 179
3 170 179 171
3 171 179 180
3 171 180 172
3 172 180 181
3 172 181 173
3 173 181 182
3 173 182 174
3 174 182 183
3 174 183 175
3 175 183 184
3 175 184 176
3 176 184 185
3 176 185 38
3 38 185 37
3 17 18 177
3 177 18 186
3 177 186 178
3 178 186 187
3 178 187 179
3 179 187 188
3 179 188 180
3 180 188 189
3 180 189 181
3 181 189 190
3 181 190 182
3 182 190 191
3 182 191 183
3 183 191 192
3 183 192 184
3 184 192 193
3 184 193 185
3 185 193 194
3 185 194 37
3 37 194 36
3 18 19 186
3 186 19 195
3 186 195 187
3 187 195 196
3 187 196 188
3 188 196 197
3 188 197 189
3 189 197 198
3 189 198 190
3 190 198 199
3 190 199 191
3 191 199 200
3 191 200 192
3 192 200 201
3 192 201 193
3 193 201 202
3 193 202 194
3 194 202 203
3 194 203 36
3 36 203 35
3 19 20 195
3 195 20 204
3 195 204 196
3 196 204 205
3 196 205 197
3 197 205 206
3 197 206 198
3 198 206 207
3 198 207 199
3 199 207 208
3 199 208 200
3 200 208 209
3 200 209 201
3 201 209 210
3 201 210 202
3 202 210 211
3 202 211 203
3 203 211 212
3 203 212 35
3 35 212 34
3 20 21 204
3 204 21 213
3 204 213 205
3 205 213 214
3 205 214 206
3 206 214 215
3 206 215 207
3 207 215 216
3 207 216 208
3 208 216 217
3 208 217 209
3 209 217 218
3 209 218 210
3 210 218 219
3 210 219 211
3 211 219 220
3 211 220 212
3 212 220 221
3 212 221 34
3 34 221 33
3 21 22 213
3 213 22 222
3 213 222 214
3 214 222 223
3 214 223 215
3 215 223 224
3 215 224 216
3 216 224 225
3 216 225 217
3 217 225 226
3 217 226 218
3 218 226 227
3 218 227 219
3 219 227 228
3 219 228 220
3 220 228 229
3 220 229 221
3 221 229 230
3 221 230 33
3 33 230 32
3 22 1 222
3 222 1 23
3 222 23 223
3 223 23 24
3 223 24 224
3 224 24 25
3 224 25 225
3 225 25 26
3 225 26 226
3 226 26 27
3 226 27 227
3 227 27 28
3 227 28 228
3 228 28 29
3 228 29 229
3 229 29 30
3 229 30 230
3 230 30 31
3 230 31 32
3 32 31 2
POINT_DATA 231
VECTORS U float
-0.000001 0.000000 0.000000
-0.288169 2.242116 0.000000
-0.299325 2.437182 0.000000
-0.000002 0.000002 0.000000
-0.001670 0.075397 0.000000
-0.006369 0.161897 0.000000
-0.013655 0.257601 0.000000
-0.023140 0.360831 0.000000
-0.034494 0.470123 0.000000
-0.047413 0.584182 0.000000
-0.061627 0.701866 0.000000
-0.076907 0.822166 0.000000
-0.093058 0.944207 0.000000
-0.109867 1.067218 0.000000
-0.127150 1.190541 0.000000
-0.144801 1.313610 0.000000
-0.162717 1.435926 0.000000
-0.180772 1.557057 0.000000
-0.198867 1.676640 0.000000
-0.216953 1.794368 0.000000
-0.234991 1.909974 0.000000
-0.252918 2.023243 0.000000
-0.270662 2.134004 0.000000
-0.288640 2.261545 0.000000
-0.289181 2.280993 0.000000
-0.289797 2.300462 0.000000
-0.290478 2.319959 0.000000
-0.291238 2.339487 0.000000
-0.292136 2.359040 0.000000
-0.293256 2.378607 0.000000
-0.294731 2.398167 0.000000
-0.296707 2.417697 0.000000
-0.281098 2.333069 0.000000
-0.262602 2.225799 0.000000
-0.243885 2.115430 0.000000
-0.225005 2.002047 0.000000
-0.206026 1.885758 0.000000
-0.187028 1.766698 0.000000
-0.168103 1.645028 0.000000
-0.149354 1.520948 0.000000
-0.130898 1.394711 0.000000
-0.112870 1.266624 0.000000
-0.095425 1.137033 0.000000
-0.078739 1.006343 0.000000
-0.063000 0.875049 0.000000
-0.048405 0.743733 0.000000
-0.035176 0.613045 0.000000
-0.023573 0.483740 0.000000
-0.013893 0.356708 0.000000
-0.006476 0.232961 0.000000
-0.001702 0.113625 0.000000
0.000001 -0.000001 0.000000
-0.000000 0.000000 0.000000
0.000000 0.000000 0.000000
-0.000000 0.000000 0.000000
0.000000 -0.000000 0.000000
-0.000000 -0.000000 0.000000
0.000000 0.000000 0.000000
-0.000001 0.000000 0.000000
0.000001 -0.000000 0.000000
-0.001672 0.079214 0.000000
-0.001671 0.083031 0.000000
-0.001669 0.086846 0.000000
-0.001670 0.090660 0.000000
-0.001671 0.094476 0.000000
-0.001673 0.098295 0.000000
-0.001675 0.102118 0.000000
-0.001675 0.105944 0.000000
-0.001680 0.109774 0.000000
-0.006368 0.168990 0.000000
-0.006364 0.176080 0.000000
-0.006364 0.183168 0.000000
-0.006369 0.190259 0.000000
-0.006370 0.197354 0.000000
-0.006378 0.204453 0.000000
-0.006383 0.211561 0.000000
-0.006388 0.218671 0.000000
-0.006417 0.225799 0.000000
-0.013650 0.267484 0.000000
-0.013648 0.277366 0.000000
-0.013656 0.287251 0.000000
-0.013661 0.297140 0.000000
-0.013670 0.307035 0.000000
-0.013685 0.316936 0.000000
-0.013690 0.326845 0.000000
-0.013717 0.336765 0.000000
-0.013785 0.346713 0.000000
-0.023139 0.373080 0.000000
-0.023146 0.385332 0.000000
-0.023156 0.397586 0.000000
-0.023168 0.409848 0.000000
-0.023186 0.422116 0.000000
-0.023203 0.434391 0.000000
-0.023223 0.446680 0.000000
-0.023288 0.458989 0.000000
-0.023407 0.471337 0.000000
-0.034500 0.484361 0.000000
-0.034512 0.498602 0.000000
-0.034530 0.512849 0.000000
-0.034548 0.527102 0.000000
-0.034573 0.541358 0.000000
-0.034602 0.555631 0.000000
-0.034655 0.569927 0.000000
-0.034771 0.584251 0.000000
-0.034945 0.598619 0.000000
-0.047427 0.600069 0.000000
-0.047450 0.615963 0.000000
-0.047472 0.631866 0.000000
-0.047493 0.647771 0.000000
-0.047535 0.663684 0.000000
-0.047592 0.679622 0.000000
-0.047689 0.695586 0.000000
-0.047862 0.711579 0.000000
-0.048093 0.727624 0.000000
-0.061658 0.719100 0.000000
-0.061690 0.736353 0.000000
-0.061707 0.753612 0.000000
-0.061745 0.770870 0.000000
-0.061818 0.788146 0.000000
-0.061905 0.805449 0.000000
-0.062053 0.822771 0.000000
-0.062289 0.840132 0.000000
-0.062584 0.857557 0.000000
-0.076960 0.840491 0.000000
-0.076981 0.858837 0.000000
-0.077004 0.877180 0.000000
-0.077081 0.895529 0.000000
-0.077181 0.913904 0.000000
-0.077300 0.932303 0.000000
-0.077515 0.950722 0.000000
-0.077821 0.969193 0.000000
-0.078186 0.987735 0.000000
-0.093100 0.963392 0.000000
-0.093112 0.982586 0.000000
-0.093176 1.001783 0.000000
-0.093290 1.020996 0.000000
-0.093410 1.040233 0.000000
-0.093582 1.059497 0.000000
-0.093874 1.078787 0.000000
-0.094249 1.098134 0.000000
-0.094692 1.117553 0.000000
-0.109884 1.087053 0.000000
-0.109933 1.106896 0.000000
-0.110043 1.126747 0.000000
-0.110176 1.146612 0.000000
-0.110334 1.166506 0.000000
-0.110578 1.186431 0.000000
-0.110945 1.206386 0.000000
-0.111383 1.226399 0.000000
-0.111922 1.246485 0.000000
-0.127191 1.210845 0.000000
-0.127289 1.231156 0.000000
-0.127422 1.251474 0.000000
-0.127586 1.271811 0.000000
-0.127804 1.292183 0.000000
-0.128126 1.312587 0.000000
-0.128559 1.333026 0.000000
-0.129065 1.353528 0.000000
-0.129728 1.374102 0.000000
-0.144891 1.334218 0.000000
-0.145016 1.354834 0.000000
-0.145178 1.375460 0.000000
-0.145395 1.396115 0.000000
-0.145683 1.416808 0.000000
-0.146080 1.437535 0.000000
-0.146578 1.458304 0.000000
-0.147164 1.479140 0.000000
-0.147968 1.500036 0.000000
-0.162838 1.456696 0.000000
-0.162992 1.477476 0.000000
-0.163207 1.498279 0.000000
-0.163487 1.519118 0.000000
-0.163849 1.539995 0.000000
-0.164319 1.560908 0.000000
-0.164882 1.581871 0.000000
-0.165555 1.602894 0.000000
-0.166510 1.623961 0.000000
-0.180922 1.577867 0.000000
-0.181133 1.598699 0.000000
-0.181413 1.619565 0.000000
-0.181757 1.640469 0.000000
-0.182192 1.661408 0.000000
-0.182731 1.682386 0.000000
-0.183357 1.703414 0.000000
-0.184125 1.724493 0.000000
-0.185237 1.745601 0.000000
-0.199080 1.697390 0.000000
-0.199362 1.718177 0.000000
-0.199700 1.739003 0.000000
-0.200108 1.759864 0.000000
-0.200616 1.780757 0.000000
-0.201215 1.801693 0.000000
-0.201904 1.822675 0.000000
-0.202777 1.843699 0.000000
-0.204052 1.864740 0.000000
-0.217249 1.814974 0.000000
-0.217591 1.835630 0.000000
-0.217983 1.856323 0.000000
-0.218458 1.877046 0.000000
-0.219031 1.897804 0.000000
-0.219682 1.918604 0.000000
-0.220442 1.939446 0.000000
-0.221430 1.960321 0.000000
-0.222868 1.981200 0.000000
-0.235353 1.930371 0.000000
-0.235742 1.950818 0.000000
-0.236192 1.971298 0.000000
-0.236735 1.991806 0.000000
-0.237360 2.012350 0.000000
-0.238062 2.032934 0.000000
-0.238903 2.053555 0.000000
-0.240014 2.074198 0.000000
-0.241605 2.094834 0.000000
-0.253321 2.043373 0.000000
-0.253756 2.063544 0.000000
-0.254270 2.083742 0.000000
-0.254868 2.103968 0.000000
-0.255537 2.124230 0.000000
-0.256297 2.144528 0.000000
-0.257227 2.164857 0.000000
-0.258463 2.185198 0.000000
-0.260194 2.205520 0.000000
-0.271097 2.153809 0.000000
-0.271586 2.173645 0.000000
-0.272156 2.193503 0.000000
-0.272799 2.213390 0.000000
-0.273511 2.233311 0.000000
-0.274337 2.253263 0.000000
-0.275361 2.273237 0.000000
-0.276719 2.293213 0.000000
-0.278578 2.313163 0.000000
TENSORS STRESS float
-120926.971189 1.475537 0.000000
1.475537 -120926.971232 0.000000
0.000000 0.000000 0.000000
511720694.712494 5.128548 0.000000
5.128548 511720698.584282 0.000000
0.000000 0.000000 0.000000
87259825.432800 5.329931 0.000000
5.329931 87259829.331879 0.000000
0.000000 0.000000 0.000000
397509.187984 2.352755 0.000000
2.352755 397509.188627 0.000000
0.000000 0.000000 0.000000
3138916.609254 1.753926 0.000000
1.753926 3138916.901536 0.000000
0.000000 0.000000 0.000000
12541356.349016 2.019005 0.000000
2.019005 12541356.919755 0.000000
0.000000 0.000000 0.000000
27403721.744453 2.271413 0.000000
2.271413 27403722.580153 0.000000
0.000000 0.000000 0.000000
46288479.640858 2.511905 0.000000
2.511905 46288480.729231 0.000000
0.000000 0.000000 0.000000
68849615.132675 2.741044 0.000000
2.741044 68849616.462320 0.000000
0.000000 0.000000 0.000000
94566329.843044 2.959615 0.000000
2.959615 94566331.402367 0.000000
0.000000 0.000000 0.000000
121968949.459503 3.167898 0.000000
3.167898 121968951.237175 0.000000
0.000000 0.000000 0.000000
150391689.840919 3.365818 0.000000
3.365818 150391691.826973 0.000000
0.000000 0.000000 0.000000
181538658.692642 3.554571 0.000000
3.554571 181538660.878876 0.000000
0.000000 0.000000 0.000000
217789433.681141 3.736028 0.000000
3.736028 217789436.058529 0.000000
0.000000 0.000000 0.000000
253496288.946575 3.909278 0.000000
3.909278 253496291.506176 0.000000
0.000000 0.000000 0.000000
285527349.238144 4.073126 0.000000
4.073126 285527351.970322 0.000000
0.000000 0.000000 0.000000
316608445.031624 4.229272 0.000000
4.229272 316608447.927757 0.000000
0.000000 0.000000 0.000000
349464459.760269 4.379035 0.000000
4.379035 349464462.812401 0.000000
0.000000 0.000000 0.000000
379502972.727936 4.521248 0.000000
4.521248 379502975.928497 0.000000
0.000000 0.000000 0.000000
403838625.976677 4.654763 0.000000
4.654763 403838629.319496 0.000000
0.000000 0.000000 0.000000
427285005.795677 4.780866 0.000000
4.780866 427285009.277039 0.000000
0.000000 0.000000 0.000000
453767122.712715 4.901688 0.000000
4.901688 453767126.329460 0.000000
0.000000 0.000000 0.000000
482790047.213310 5.017672 0.000000
5.017672 482790050.960686 0.000000
0.000000 0.000000 0.000000
504251334.987625 5.158880 0.000000
5.158880 504251338.864372 0.000000
0.000000 0.000000 0.000000
492274374.818466 5.187796 0.000000
5.187796 492274378.699364 0.000000
0.000000 0.000000 0.000000
481936846.942146 5.216951 0.000000
5.216951 481936850.828484 0.000000
0.000000 0.000000 0.000000
472782844.554054 5.246403 0.000000
5.246403 472782848.446991 0.000000
0.000000 0.000000 0.000000
456791870.914055 5.273773 0.000000
5.273773 456791874.813324 0.000000
0.000000 0.000000 0.000000
428416810.067436 5.297669 0.000000
5.297669 428416813.972038 0.000000
0.000000 0.000000 0.000000
380911485.719124 5.316118 0.000000
5.316118 380911489.626587 0.000000
0.000000 0.000000 0.000000
306973336.432701 5.327543 0.000000
5.327543 306973340.339294 0.000000
0.000000 0.000000 0.000000
205837205.905045 5.331496 0.000000
5.331496 205837209.807549 0.000000
0.000000 0.000000 0.000000
97122125.941696 5.245863 0.000000
5.245863 97122129.723953 0.000000
0.000000 0.000000 0.000000
106510906.845284 5.156712 0.000000
5.156712 106510910.504654 0.000000
0.000000 0.000000 0.000000
114532089.289093 5.062108 0.000000
5.062108 114532092.819458 0.000000
0.000000 0.000000 0.000000
120616412.575256 4.961858 0.000000
4.961858 120616415.970078 0.000000
0.000000 0.000000 0.000000
124674433.474968 4.855964 0.000000
4.855964 124674436.727150 0.000000
0.000000 0.000000 0.000000
126754596.879341 4.744509 0.000000
4.744509 126754599.981270 0.000000
0.000000 0.000000 0.000000
127165878.600220 4.627473 0.000000
4.627473 127165881.543945 0.000000
0.000000 0.000000 0.000000
125978643.715622 4.504213 0.000000
4.504213 125978646.493217 0.000000
0.000000 0.000000 0.000000
123463805.283691 4.374029 0.000000
4.374029 123463807.887054 0.000000
0.000000 0.000000 0.000000
120567463.335819 4.237263 0.000000
4.237263 120567465.756310 0.000000
0.000000 0.000000 0.000000
116542016.975323 4.093875 0.000000
4.093875 116542019.203373 0.000000
0.000000 0.000000 0.000000
108812359.313679 3.942050 0.000000
3.942050 108812361.338463 0.000000
0.000000 0.000000 0.000000
94672336.611889 3.779760 0.000000
3.779760 94672338.422401 0.000000
0.000000 0.000000 0.000000
76776121.185925 3.606969 0.000000
3.606969 76776122.772034 0.000000
0.000000 0.000000 0.000000
57503245.320721 3.424438 0.000000
3.424438 57503246.671982 0.000000
0.000000 0.000000 0.000000
38709714.554743 3.231505 0.000000
3.231505 38709715.659956 0.000000
0.000000 0.000000 0.000000
23118705.155993 3.027797 0.000000
3.027797 23118706.003708 0.000000
0.000000 0.000000 0.000000
10864091.002116 2.813909 0.000000
2.813909 10864091.580349 0.000000
0.000000 0.000000 0.000000
3556551.846909 2.589303 0.000000
2.589303 3556552.142995 0.000000
0.000000 0.000000 0.000000
76175.465493 2.264754 0.000000
2.264754 76175.465447 0.000000
0.000000 0.000000 0.000000
28286.409615 2.176833 0.000000
2.176833 28286.409596 0.000000
0.000000 0.000000 0.000000
-98561.058511 2.088974 0.000000
2.088974 -98561.058507 0.000000
0.000000 0.000000 0.000000
-52210.703952 2.001219 0.000000
2.001219 -52210.703965 0.000000
0.000000 0.000000 0.000000
134948.142518 1.913581 0.000000
1.913581 134948.142553 0.000000
0.000000 0.000000 0.000000
-63935.957331 1.825986 0.000000
1.825986 -63935.957348 0.000000
0.000000 0.000000 0.000000
-21436.114317 1.738400 0.000000
1.738400 -21436.114333 0.000000
0.000000 0.000000 0.000000
194624.727383 1.650756 0.000000
1.650756 194624.727384 0.000000
0.000000 0.000000 0.000000
-191102.957507 1.563096 0.000000
1.563096 -191102.957488 0.000000
0.000000 0.000000 0.000000
3369571.515388 1.837387 0.000000
1.837387 3369571.807759 0.000000
0.000000 0.000000 0.000000
3380159.575652 1.920935 0.000000
1.920935 3380159.867953 0.000000
0.000000 0.000000 0.000000
3360644.601531 2.004334 0.000000
2.004334 3360644.893603 0.000000
0.000000 0.000000 0.000000
3326178.481036 2.087736 0.000000
2.087736 3326178.773254 0.000000
0.000000 0.000000 0.000000
3379716.387141 2.171252 0.000000
2.171252 3379716.679535 0.000000
0.000000 0.000000 0.000000
3293825.457280 2.254727 0.000000
2.254727 3293825.749854 0.000000
0.000000 0.000000 0.000000
3340147.295794 2.338358 0.000000
2.338358 3340147.588799 0.000000
0.000000 0.000000 0.000000
3322783.109467 2.422050 0.000000
2.422050 3322783.402509 0.000000
0.000000 0.000000 0.000000
2948576.709434 2.505623 0.000000
2.505623 2948577.003398 0.000000
0.000000 0.000000 0.000000
12777834.324697 2.098572 0.000000
2.098572 12777834.895401 0.000000
0.000000 0.000000 0.000000
12794961.921998 2.178023 0.000000
2.178023 12794962.492425 0.000000
0.000000 0.000000 0.000000
12566820.143363 2.257344 0.000000
2.257344 12566820.713856 0.000000
0.000000 0.000000 0.000000
12623095.680387 2.336890 0.000000
2.336890 12623096.251272 0.000000
0.000000 0.000000 0.000000
12661158.360451 2.416419 0.000000
2.416419 12661158.931492 0.000000
0.000000 0.000000 0.000000
12436623.277234 2.495883 0.000000
2.495883 12436623.848898 0.000000
0.000000 0.000000 0.000000
12761883.285016 2.575730 0.000000
2.575730 12761883.857096 0.000000
0.000000 0.000000 0.000000
12181497.633343 2.655135 0.000000
2.655135 12181498.205981 0.000000
0.000000 0.000000 0.000000
11281233.804395 2.734440 0.000000
2.734440 11281234.379254 0.000000
0.000000 0.000000 0.000000
27437173.705273 2.347125 0.000000
2.347125 27437174.540937 0.000000
0.000000 0.000000 0.000000
27065625.533833 2.422665 0.000000
2.422665 27065626.369629 0.000000
0.000000 0.000000 0.000000
26973781.334835 2.498325 0.000000
2.498325 26973782.170853 0.000000
0.000000 0.000000 0.000000
27112019.939167 2.574174 0.000000
2.574174 27112020.775646 0.000000
0.000000 0.000000 0.000000
26740799.709543 2.649798 0.000000
2.649798 26740800.546547 0.000000
0.000000 0.000000 0.000000
26992221.041183 2.725742 0.000000
2.725742 26992221.878822 0.000000
0.000000 0.000000 0.000000
27011455.268072 2.801717 0.000000
2.801717 27011456.106346 0.000000
0.000000 0.000000 0.000000
25524234.719894 2.876909 0.000000
2.876909 25524235.559694 0.000000
0.000000 0.000000 0.000000
24254748.278809 2.952274 0.000000
2.952274 24254749.121950 0.000000
0.000000 0.000000 0.000000
46100772.086454 2.583909 0.000000
2.583909 46100773.175194 0.000000
0.000000 0.000000 0.000000
45842043.428658 2.655921 0.000000
2.655921 45842044.517475 0.000000
0.000000 0.000000 0.000000
45815631.468534 2.728087 0.000000
2.728087 45815632.557783 0.000000
0.000000 0.000000 0.000000
45753743.248692 2.800252 0.000000
2.800252 45753744.338755 0.000000
0.000000 0.000000 0.000000
45457465.460480 2.872292 0.000000
2.872292 45457466.550861 0.000000
0.000000 0.000000 0.000000
45909435.848717 2.944723 0.000000
2.944723 45909436.940121 0.000000
0.000000 0.000000 0.000000
44973491.839319 3.016650 0.000000
3.016650 44973492.932222 0.000000
0.000000 0.000000 0.000000
42680631.665499 3.088012 0.000000
3.088012 42680632.760878 0.000000
0.000000 0.000000 0.000000
40953807.058205 3.159687 0.000000
3.159687 40953808.158014 0.000000
0.000000 0.000000 0.000000
68551114.729525 2.809634 0.000000
2.809634 68551116.059383 0.000000
0.000000 0.000000 0.000000
68213792.656565 2.878234 0.000000
2.878234 68213793.986805 0.000000
0.000000 0.000000 0.000000
68246244.217575 2.947005 0.000000
2.947005 68246245.548616 0.000000
0.000000 0.000000 0.000000
68127447.545559 3.015745 0.000000
3.015745 68127448.876875 0.000000
0.000000 0.000000 0.000000
67773381.319302 3.084290 0.000000
3.084290 67773382.651270 0.000000
0.000000 0.000000 0.000000
67889778.571592 3.153062 0.000000
3.153062 67889779.905769 0.000000
0.000000 0.000000 0.000000
65910518.845203 3.221064 0.000000
3.221064 65910520.181639 0.000000
0.000000 0.000000 0.000000
62816761.362650 3.288681 0.000000
3.288681 62816762.702499 0.000000
0.000000 0.000000 0.000000
60618225.258465 3.356726 0.000000
3.356726 60618226.603214 0.000000
0.000000 0.000000 0.000000
93937384.494663 3.024721 0.000000
3.024721 93937386.054482 0.000000
0.000000 0.000000 0.000000
93765556.373203 3.090052 0.000000
3.090052 93765557.933990 0.000000
0.000000 0.000000 0.000000
94166990.950157 3.155861 0.000000
3.155861 94166992.511517 0.000000
0.000000 0.000000 0.000000
93484548.173519 3.221154 0.000000
3.221154 93484549.734901 0.000000
0.000000 0.000000 0.000000
92699547.781113 3.286199 0.000000
3.286199 92699549.344345 0.000000
0.000000 0.000000 0.000000
92035087.656273 3.351453 0.000000
3.351453 92035089.222366 0.000000
0.000000 0.000000 0.000000
88757676.220860 3.415463 0.000000
3.415463 88757677.789268 0.000000
0.000000 0.000000 0.000000
85273605.395180 3.479385 0.000000
3.479385 85273606.967857 0.000000
0.000000 0.000000 0.000000
82799756.913292 3.543913 0.000000
3.543913 82799758.491707 0.000000
0.000000 0.000000 0.000000
121467334.612743 3.229566 0.000000
3.229566 121467336.392124 0.000000
0.000000 0.000000 0.000000
122381091.811691 3.292338 0.000000
3.292338 122381093.592609 0.000000
0.000000 0.000000 0.000000
122690938.312996 3.354980 0.000000
3.354980 122690940.093781 0.000000
0.000000 0.000000 0.000000
120315722.114632 3.416356 0.000000
3.416356 120315723.895943 0.000000
0.000000 0.000000 0.000000
119684525.946068 3.478288 0.000000
3.478288 119684527.730404 0.000000
0.000000 0.000000 0.000000
118322765.722973 3.540104 0.000000
3.540104 118322767.509632 0.000000
0.000000 0.000000 0.000000
113416688.725689 3.600186 0.000000
3.600186 113416690.514832 0.000000
0.000000 0.000000 0.000000
109901283.045944 3.660907 0.000000
3.660907 109901284.841080 0.000000
0.000000 0.000000 0.000000
106649553.824215 3.722156 0.000000
3.722156 106649555.626270 0.000000
0.000000 0.000000 0.000000
152016080.705090 3.425251 0.000000
3.425251 152016082.694599 0.000000
0.000000 0.000000 0.000000
153810545.183144 3.485456 0.000000
3.485456 153810547.173164 0.000000
0.000000 0.000000 0.000000
151499483.687908 3.543889 0.000000
3.543889 151499485.677708 0.000000
0.000000 0.000000 0.000000
148570099.127773 3.601986 0.000000
3.601986 148570101.119564 0.000000
0.000000 0.000000 0.000000
148993383.434769 3.661361 0.000000
3.661361 148993385.429680 0.000000
0.000000 0.000000 0.000000
145580795.441708 3.719441 0.000000
3.719441 145580797.438744 0.000000
0.000000 0.000000 0.000000
138716739.526386 3.775993 0.000000
3.775993 138716741.527092 0.000000
0.000000 0.000000 0.000000
135562757.955650 3.833929 0.000000
3.833929 135562759.963947 0.000000
0.000000 0.000000 0.000000
130934533.761772 3.891656 0.000000
3.891656 130934535.777607 0.000000
0.000000 0.000000 0.000000
186002026.295807 3.612514 0.000000
3.612514 186002028.484726 0.000000
0.000000 0.000000 0.000000
184764640.151459 3.668640 0.000000
3.668640 184764642.340504 0.000000
0.000000 0.000000 0.000000
180475700.496750 3.723399 0.000000
3.723399 180475702.686966 0.000000
0.000000 0.000000 0.000000
179396370.520939 3.779432 0.000000
3.779432 179396372.713486 0.000000
0.000000 0.000000 0.000000
178915902.305141 3.835636 0.000000
3.835636 178915904.500980 0.000000
0.000000 0.000000 0.000000
172502870.653912 3.889770 0.000000
3.889770 172502872.852619 0.000000
0.000000 0.000000 0.000000
164641430.420784 3.943268 0.000000
3.943268 164641432.624218 0.000000
0.000000 0.000000 0.000000
162177230.105644 3.998486 0.000000
3.998486 162177232.317234 0.000000
0.000000 0.000000 0.000000
154099386.634583 4.051906 0.000000
4.051906 154099388.854214 0.000000
0.000000 0.000000 0.000000
219316750.339363 3.790374 0.000000
3.790374 219316752.718353 0.000000
0.000000 0.000000 0.000000
214764627.248573 3.842391 0.000000
3.842391 214764629.628609 0.000000
0.000000 0.000000 0.000000
211718934.730202 3.895069 0.000000
3.895069 211718937.111477 0.000000
0.000000 0.000000 0.000000
211159736.635502 3.948459 0.000000
3.948459 211159739.019382 0.000000
0.000000 0.000000 0.000000
208088559.085182 4.000826 0.000000
4.000826 208088561.473282 0.000000
0.000000 0.000000 0.000000
199364738.320755 4.051378 0.000000
4.051378 199364740.712326 0.000000
0.000000 0.000000 0.000000
192031836.633369 4.102416 0.000000
4.102416 192031839.030228 0.000000
0.000000 0.000000 0.000000
189088310.590889 4.154785 0.000000
4.154785 189088312.996376 0.000000
0.000000 0.000000 0.000000
174697617.784641 4.203196 0.000000
4.203196 174697620.198948 0.000000
0.000000 0.000000 0.000000
249986351.919052 3.958879 0.000000
3.958879 249986354.479923 0.000000
0.000000 0.000000 0.000000
246205760.929596 4.008611 0.000000
4.008611 246205763.491379 0.000000
0.000000 0.000000 0.000000
244277932.440861 4.059040 0.000000
4.059040 244277935.003944 0.000000
0.000000 0.000000 0.000000
241755627.956406 4.108936 0.000000
4.108936 241755630.523296 0.000000
0.000000 0.000000 0.000000
236314103.729786 4.157807 0.000000
4.157807 236314106.301628 0.000000
0.000000 0.000000 0.000000
226569606.127689 4.205507 0.000000
4.205507 226569608.703419 0.000000
0.000000 0.000000 0.000000
220107892.929550 4.254412 0.000000
4.254412 220107895.511589 0.000000
0.000000 0.000000 0.000000
214716818.253834 4.303559 0.000000
4.303559 214716820.845413 0.000000
0.000000 0.000000 0.000000
191454320.139336 4.346531 0.000000
4.346531 191454322.739685 0.000000
0.000000 0.000000 0.000000
281788128.766354 4.120043 0.000000
4.120043 281788131.500069 0.000000
0.000000 0.000000 0.000000
279308299.778610 4.167781 0.000000
4.167781 279308302.513218 0.000000
0.000000 0.000000 0.000000
275499652.643299 4.214943 0.000000
4.214943 275499655.380470 0.000000
0.000000 0.000000 0.000000
271012469.119595 4.261675 0.000000
4.261675 271012471.861927 0.000000
0.000000 0.000000 0.000000
263867744.052753 4.307633 0.000000
4.307633 263867746.800255 0.000000
0.000000 0.000000 0.000000
253989409.412209 4.352977 0.000000
4.352977 253989412.164497 0.000000
0.000000 0.000000 0.000000
247658559.160088 4.399570 0.000000
4.399570 247658561.920120 0.000000
0.000000 0.000000 0.000000
238337990.006493 4.444925 0.000000
4.444925 238337992.776192 0.000000
0.000000 0.000000 0.000000
205216685.465569 4.482125 0.000000
4.482125 205216688.242584 0.000000
0.000000 0.000000 0.000000
314872087.595001 4.274471 0.000000
4.274471 314872090.492966 0.000000
0.000000 0.000000 0.000000
310561064.637291 4.319011 0.000000
4.319011 310561067.537384 0.000000
0.000000 0.000000 0.000000
305044086.610367 4.363090 0.000000
4.363090 305044089.514946 0.000000
0.000000 0.000000 0.000000
299716832.482742 4.407291 0.000000
4.407291 299716835.393135 0.000000
0.000000 0.000000 0.000000
290915351.465904 4.450502 0.000000
4.450502 290915354.381516 0.000000
0.000000 0.000000 0.000000
281191882.633705 4.493577 0.000000
4.493577 281191885.555428 0.000000
0.000000 0.000000 0.000000
274322149.603073 4.537519 0.000000
4.537519 274322152.533173 0.000000
0.000000 0.000000 0.000000
259329604.235512 4.578566 0.000000
4.578566 259329607.174286 0.000000
0.000000 0.000000 0.000000
215394946.371078 4.610036 0.000000
4.610036 215394949.315277 0.000000
0.000000 0.000000 0.000000
345914108.792717 4.421016 0.000000
4.421016 345914111.847771 0.000000
0.000000 0.000000 0.000000
339391067.049660 4.462336 0.000000
4.462336 339391070.109169 0.000000
0.000000 0.000000 0.000000
333978900.991119 4.504249 0.000000
4.504249 333978904.056343 0.000000
0.000000 0.000000 0.000000
327416397.400398 4.545912 0.000000
4.545912 327416400.471298 0.000000
0.000000 0.000000 0.000000
316931620.149345 4.586355 0.000000
4.586355 316931623.225792 0.000000
0.000000 0.000000 0.000000
308149927.237137 4.627390 0.000000
4.627390 308149930.320625 0.000000
0.000000 0.000000 0.000000
299515758.511505 4.668393 0.000000
4.668393 299515761.603104 0.000000
0.000000 0.000000 0.000000
277236553.247826 4.704874 0.000000
4.704874 277236556.346886 0.000000
0.000000 0.000000 0.000000
222133179.134857 4.730917 0.000000
4.730917 222133182.237724 0.000000
0.000000 0.000000 0.000000
373009945.922699 4.559522 0.000000
4.559522 373009949.129074 0.000000
0.000000 0.000000 0.000000
367449711.268723 4.598875 0.000000
4.598875 367449714.481445 0.000000
0.000000 0.000000 0.000000
362387207.632797 4.638812 0.000000
4.638812 362387210.851402 0.000000
0.000000 0.000000 0.000000
353434258.376434 4.677603 0.000000
4.677603 353434261.600441 0.000000
0.000000 0.000000 0.000000
342572980.126686 4.715775 0.000000
4.715775 342572983.356773 0.000000
0.000000 0.000000 0.000000
334759481.992294 4.754951 0.000000
4.754951 334759485.229836 0.000000
0.000000 0.000000 0.000000
322294427.274292 4.792636 0.000000
4.792636 322294430.519524 0.000000
0.000000 0.000000 0.000000
291294405.324806 4.824453 0.000000
4.824453 291294408.576416 0.000000
0.000000 0.000000 0.000000
225447455.534096 4.845545 0.000000
4.845545 225447458.787918 0.000000
0.000000 0.000000 0.000000
399451485.631767 4.691236 0.000000
4.691236 399451488.983917 0.000000
0.000000 0.000000 0.000000
395854836.601921 4.729220 0.000000
4.729220 395854839.961098 0.000000
0.000000 0.000000 0.000000
389238127.016190 4.766677 0.000000
4.766677 389238130.380989 0.000000
0.000000 0.000000 0.000000
377957905.142845 4.802751 0.000000
4.802751 377957908.513138 0.000000
0.000000 0.000000 0.000000
368372379.589928 4.839347 0.000000
4.839347 368372382.966827 0.000000
0.000000 0.000000 0.000000
359943569.262367 4.876297 0.000000
4.876297 359943572.646797 0.000000
0.000000 0.000000 0.000000
341788040.877174 4.910263 0.000000
4.910263 341788044.268852 0.000000
0.000000 0.000000 0.000000
301344306.714615 4.937435 0.000000
4.937435 301344310.111427 0.000000
0.000000 0.000000 0.000000
226033953.238251 4.954166 0.000000
4.954166 226033956.635582 0.000000
0.000000 0.000000 0.000000
427149400.100632 4.817018 0.000000
4.817018 427149403.592850 0.000000
0.000000 0.000000 0.000000
423362229.017334 4.853210 0.000000
4.853210 423362232.516365 0.000000
0.000000 0.000000 0.000000
413561897.915192 4.887838 0.000000
4.887838 413561901.419556 0.000000
0.000000 0.000000 0.000000
402291704.112457 4.922029 0.000000
4.922029 402291707.622612 0.000000
0.000000 0.000000 0.000000
393919242.688438 4.957107 0.000000
4.957107 393919246.205597 0.000000
0.000000 0.000000 0.000000
382532646.200745 4.991219 0.000000
4.991219 382532649.725266 0.000000
0.000000 0.000000 0.000000
357566640.242569 5.021262 0.000000
5.021262 357566643.773720 0.000000
0.000000 0.000000 0.000000
307716446.339127 5.043948 0.000000
5.043948 307716449.873848 0.000000
0.000000 0.000000 0.000000
224456684.886612 5.056979 0.000000
5.056979 224456688.420181 0.000000
0.000000 0.000000 0.000000
455033909.675415 4.936938 0.000000
4.936938 455033913.302032 0.000000
0.000000 0.000000 0.000000
448341405.108360 4.970640 0.000000
4.970640 448341408.740936 0.000000
0.000000 0.000000 0.000000
436586438.906883 5.002927 0.000000
5.002927 436586442.544617 0.000000
0.000000 0.000000 0.000000
426755857.630753 5.035730 0.000000
5.035730 426755861.274582 0.000000
0.000000 0.000000 0.000000
418086653.469772 5.068835 0.000000
5.068835 418086657.120811 0.000000
0.000000 0.000000 0.000000
401489655.608398 5.099583 0.000000
5.099583 401489659.266319 0.000000
0.000000 0.000000 0.000000
369310495.993385 5.125731 0.000000
5.125731 369310499.656967 0.000000
0.000000 0.000000 0.000000
310409438.720917 5.144223 0.000000
5.144223 310409442.386345 0.000000
0.000000 0.000000 0.000000
220970004.576103 5.154097 0.000000
5.154097 220970008.239014 0.000000
0.000000 0.000000 0.000000
481291253.718956 5.050890 0.000000
5.050890 481291257.473961 0.000000
0.000000 0.000000 0.000000
470757141.522545 5.081862 0.000000
5.081862 470757145.282379 0.000000
0.000000 0.000000 0.000000
459494882.538208 5.112559 0.000000
5.112559 459494886.303177 0.000000
0.000000 0.000000 0.000000
450473026.649818 5.143797 0.000000
5.143797 450473030.421280 0.000000
0.000000 0.000000 0.000000
439256924.336510 5.174328 0.000000
5.174328 439256928.114929 0.000000
0.000000 0.000000 0.000000
416893735.248093 5.201582 0.000000
5.201582 416893739.032730 0.000000
0.000000 0.000000 0.000000
377288592.708710 5.223929 0.000000
5.223929 377288596.497681 0.000000
0.000000 0.000000 0.000000
310248088.358284 5.238623 0.000000
5.238623 310248092.147552 0.000000
0.000000 0.000000 0.000000
214705563.939743 5.245519 0.000000
5.245519 214705567.725510 0.000000
0.000000 0.000000 0.000000
