# vtk DataFile Version 2.0
cook_membrance_guass3
ASCII
DATASET POLYDATA
POINTS 1891 float
0.000000 0.000000 0.000000
48.000000 44.000000 0.000000
48.000000 60.000000 0.000000
0.000000 44.000000 0.000000
1.353787 1.240971 0.000000
2.681028 2.457609 0.000000
3.982246 3.650392 0.000000
5.257949 4.819787 0.000000
6.508639 5.966252 0.000000
7.734805 7.090238 0.000000
8.936929 8.192185 0.000000
10.115482 9.272525 0.000000
11.270925 10.331682 0.000000
12.403714 11.370071 0.000000
13.514290 12.388099 0.000000
14.603091 13.386166 0.000000
15.670542 14.364664 0.000000
16.717063 15.323975 0.000000
17.743064 16.264476 0.000000
18.748948 17.186535 0.000000
19.735108 18.090516 0.000000
20.701932 18.976771 0.000000
21.649798 19.845648 0.000000
22.579079 20.697489 0.000000
23.490138 21.532627 0.000000
24.383334 22.351390 0.000000
25.259016 23.154098 0.000000
26.117528 23.941067 0.000000
26.959206 24.712606 0.000000
27.784381 25.469016 0.000000
28.593376 26.210594 0.000000
29.386508 26.937632 0.000000
30.164089 27.650414 0.000000
30.926422 28.349221 0.000000
31.673809 29.034325 0.000000
32.406540 29.705995 0.000000
33.124904 30.364496 0.000000
33.829183 31.010085 0.000000
34.519652 31.643015 0.000000
35.196583 32.263535 0.000000
35.860241 32.871887 0.000000
36.510885 33.468312 0.000000
37.148772 34.053041 0.000000
37.774152 34.626306 0.000000
38.387269 35.188330 0.000000
38.988364 35.739333 0.000000
39.577673 36.279533 0.000000
40.155426 36.809141 0.000000
40.721852 37.328364 0.000000
41.277171 37.837406 0.000000
41.821601 38.336468 0.000000
42.355356 38.825743 0.000000
42.878646 39.305425 0.000000
43.391675 39.775702 0.000000
43.894644 40.236757 0.000000
44.387751 40.688772 0.000000
44.871190 41.131924 0.000000
45.345149 41.566387 0.000000
45.809815 41.992331 0.000000
46.265370 42.409923 0.000000
46.711993 42.819327 0.000000
47.149858 43.220703 0.000000
47.579138 43.614210 0.000000
48.000000 44.533333 0.000000
48.000000 45.066667 0.000000
48.000000 45.600000 0.000000
48.000000 46.133333 0.000000
48.000000 46.666667 0.000000
48.000000 47.200000 0.000000
48.000000 47.733333 0.000000
48.000000 48.266667 0.000000
48.000000 48.800000 0.000000
48.000000 49.333333 0.000000
48.000000 49.866667 0.000000
48.000000 50.400000 0.000000
48.000000 50.933333 0.000000
48.000000 51.466667 0.000000
48.000000 52.000000 0.000000
48.000000 52.533333 0.000000
48.000000 53.066667 0.000000
48.000000 53.600000 0.000000
48.000000 54.133333 0.000000
48.000000 54.666667 0.000000
48.000000 55.200000 0.000000
48.000000 55.733333 0.000000
48.000000 56.266667 0.000000
48.000000 56.800000 0.000000
48.000000 57.333333 0.000000
48.000000 57.866667 0.000000
48.000000 58.400000 0.000000
48.000000 58.933333 0.000000
48.000000 59.466667 0.000000
47.579138 59.859713 0.000000
47.149858 59.716619 0.000000
46.711993 59.570664 0.000000
46.265370 59.421790 0.000000
45.809815 59.269938 0.000000
45.345149 59.115050 0.000000
44.871190 58.957063 0.000000
44.387751 58.795917 0.000000
43.894644 58.631548 0.000000
43.391675 58.463892 0.000000
42.878646 58.292882 0.000000
42.355356 58.118452 0.000000
41.821601 57.940534 0.000000
41.277171 57.759057 0.000000
40.721852 57.573951 0.000000
40.155426 57.385142 0.000000
39.577673 57.192558 0.000000
38.988364 56.996121 0.000000
38.387269 56.795756 0.000000
37.774152 56.591384 0.000000
37.148772 56.382924 0.000000
36.510885 56.170295 0.000000
35.860241 55.953414 0.000000
35.196583 55.732194 0.000000
34.519652 55.506551 0.000000
33.829183 55.276394 0.000000
33.124904 55.041635 0.000000
32.406540 54.802180 0.000000
31.673809 54.557936 0.000000
30.926422 54.308807 0.000000
30.164089 54.054696 0.000000
29.386508 53.795503 0.000000
28.593376 53.531125 0.000000
27.784381 53.261460 0.000000
26.959206 52.986402 0.000000
26.117528 52.705843 0.000000
25.259016 52.419672 0.000000
24.383334 52.127778 0.000000
23.490138 51.830046 0.000000
22.579079 51.526360 0.000000
21.649798 51.216599 0.000000
20.701932 50.900644 0.000000
19.735108 50.578369 0.000000
18.748948 50.249649 0.000000
17.743064 49.914355 0.000000
16.717063 49.572354 0.000000
15.670542 49.223514 0.000000
14.603091 48.867697 0.000000
13.514290 48.504763 0.000000
12.403714 48.134571 0.000000
11.270925 47.756975 0.000000
10.115482 47.371827 0.000000
8.936929 46.978976 0.000000
7.734805 46.578268 0.000000
6.508639 46.169546 0.000000
5.257949 45.752650 0.000000
3.982246 45.327415 0.000000
2.681028 44.893676 0.000000
1.353787 44.451262 0.000000
0.000000 42.533333 0.000000
0.000000 41.066667 0.000000
0.000000 39.600000 0.000000
0.000000 38.133333 0.000000
0.000000 36.666667 0.000000
0.000000 35.200000 0.000000
0.000000 33.733333 0.000000
0.000000 32.266667 0.000000
0.000000 30.800000 0.000000
0.000000 29.333333 0.000000
0.000000 27.866667 0.000000
0.000000 26.400000 0.000000
0.000000 24.933333 0.000000
0.000000 23.466667 0.000000
0.000000 22.000000 0.000000
0.000000 20.533333 0.000000
0.000000 19.066667 0.000000
0.000000 17.600000 0.000000
0.000000 16.133333 0.000000
0.000000 14.666667 0.000000
0.000000 13.200000 0.000000
0.000000 11.733333 0.000000
0.000000 10.266667 0.000000
0.000000 8.800000 0.000000
0.000000 7.333333 0.000000
0.000000 5.866667 0.000000
0.000000 4.400000 0.000000
0.000000 2.933333 0.000000
0.000000 1.466667 0.000000
1.353787 2.681314 0.000000
1.353787 4.121657 0.000000
1.353787 5.562000 0.000000
1.353787 7.002343 0.000000
1.353787 8.442686 0.000000
1.353787 9.883029 0.000000
1.353787 11.323372 0.000000
1.353787 12.763715 0.000000
1.353787 14.204058 0.000000
1.353787 15.644401 0.000000
1.353787 17.084744 0.000000
1.353787 18.525088 0.000000
1.353787 19.965431 0.000000
1.353787 21.405774 0.000000
1.353787 22.846117 0.000000
1.353787 24.286460 0.000000
1.353787 25.726803 0.000000
1.353787 27.167146 0.000000
1.353787 28.607489 0.000000
1.353787 30.047832 0.000000
1.353787 31.488175 0.000000
1.353787 32.928518 0.000000
1.353787 34.368861 0.000000
1.353787 35.809204 0.000000
1.353787 37.249547 0.000000
1.353787 38.689890 0.000000
1.353787 40.130233 0.000000
1.353787 41.570576 0.000000
1.353787 43.010919 0.000000
2.681028 3.872145 0.000000
2.681028 5.286680 0.000000
2.681028 6.701216 0.000000
2.681028 8.115752 0.000000
2.681028 9.530287 0.000000
2.681028 10.944823 0.000000
2.681028 12.359358 0.000000
2.681028 13.773894 0.000000
2.681028 15.188429 0.000000
2.681028 16.602965 0.000000
2.681028 18.017501 0.000000
2.681028 19.432036 0.000000
2.681028 20.846572 0.000000
2.681028 22.261107 0.000000
2.681028 23.675643 0.000000
2.681028 25.090178 0.000000
2.681028 26.504714 0.000000
2.681028 27.919249 0.000000
2.681028 29.333785 0.000000
2.681028 30.748321 0.000000
2.681028 32.162856 0.000000
2.681028 33.577392 0.000000
2.681028 34.991927 0.000000
2.681028 36.406463 0.000000
2.681028 37.820998 0.000000
2.681028 39.235534 0.000000
2.681028 40.650069 0.000000
2.681028 42.064605 0.000000
2.681028 43.479141 0.000000
3.982246 5.039626 0.000000
3.982246 6.428860 0.000000
3.982246 7.818094 0.000000
3.982246 9.207328 0.000000
3.982246 10.596563 0.000000
3.982246 11.985797 0.000000
3.982246 13.375031 0.000000
3.982246 14.764265 0.000000
3.982246 16.153499 0.000000
3.982246 17.542733 0.000000
3.982246 18.931967 0.000000
3.982246 20.321201 0.000000
3.982246 21.710435 0.000000
3.982246 23.099670 0.000000
3.982246 24.488904 0.000000
3.982246 25.878138 0.000000
3.982246 27.267372 0.000000
3.982246 28.656606 0.000000
3.982246 30.045840 0.000000
3.982246 31.435074 0.000000
3.982246 32.824308 0.000000
3.982246 34.213542 0.000000
3.982246 35.602777 0.000000
3.982246 36.992011 0.000000
3.982246 38.381245 0.000000
3.982246 39.770479 0.000000
3.982246 41.159713 0.000000
3.982246 42.548947 0.000000
3.982246 43.938181 0.000000
5.257949 6.184216 0.000000
5.257949 7.548644 0.000000
5.257949 8.913073 0.000000
5.257949 10.277502 0.000000
5.257949 11.641931 0.000000
5.257949 13.006359 0.000000
5.257949 14.370788 0.000000
5.257949 15.735217 0.000000
5.257949 17.099646 0.000000
5.257949 18.464074 0.000000
5.257949 19.828503 0.000000
5.257949 21.192932 0.000000
5.257949 22.557361 0.000000
5.257949 23.921790 0.000000
5.257949 25.286218 0.000000
5.257949 26.650647 0.000000
5.257949 28.015076 0.000000
5.257949 29.379505 0.000000
5.257949 30.743933 0.000000
5.257949 32.108362 0.000000
5.257949 33.472791 0.000000
5.257949 34.837220 0.000000
5.257949 36.201648 0.000000
5.257949 37.566077 0.000000
5.257949 38.930506 0.000000
5.257949 40.294935 0.000000
5.257949 41.659363 0.000000
5.257949 43.023792 0.000000
5.257949 44.388221 0.000000
6.508639 7.306362 0.000000
6.508639 8.646472 0.000000
6.508639 9.986582 0.000000
6.508639 11.326691 0.000000
6.508639 12.666801 0.000000
6.508639 14.006911 0.000000
6.508639 15.347021 0.000000
6.508639 16.687131 0.000000
6.508639 18.027240 0.000000
6.508639 19.367350 0.000000
6.508639 20.707460 0.000000
6.508639 22.047570 0.000000
6.508639 23.387680 0.000000
6.508639 24.727789 0.000000
6.508639 26.067899 0.000000
6.508639 27.408009 0.000000
6.508639 28.748119 0.000000
6.508639 30.088229 0.000000
6.508639 31.428338 0.000000
6.508639 32.768448 0.000000
6.508639 34.108558 0.000000
6.508639 35.448668 0.000000
6.508639 36.788778 0.000000
6.508639 38.128887 0.000000
6.508639 39.468997 0.000000
6.508639 40.809107 0.000000
6.508639 42.149217 0.000000
6.508639 43.489327 0.000000
6.508639 44.829436 0.000000
7.734805 8.406506 0.000000
7.734805 9.722773 0.000000
7.734805 11.039041 0.000000
7.734805 12.355309 0.000000
7.734805 13.671576 0.000000
7.734805 14.987844 0.000000
7.734805 16.304112 0.000000
7.734805 17.620379 0.000000
7.734805 18.936647 0.000000
7.734805 20.252915 0.000000
7.734805 21.569182 0.000000
7.734805 22.885450 0.000000
7.734805 24.201718 0.000000
7.734805 25.517985 0.000000
7.734805 26.834253 0.000000
7.734805 28.150521 0.000000
7.734805 29.466789 0.000000
7.734805 30.783056 0.000000
7.734805 32.099324 0.000000
7.734805 33.415592 0.000000
7.734805 34.731859 0.000000
7.734805 36.048127 0.000000
7.734805 37.364395 0.000000
7.734805 38.680662 0.000000
7.734805 39.996930 0.000000
7.734805 41.313198 0.000000
7.734805 42.629465 0.000000
7.734805 43.945733 0.000000
7.734805 45.262001 0.000000
8.936929 9.485078 0.000000
8.936929 10.777971 0.000000
8.936929 12.070864 0.000000
8.936929 13.363757 0.000000
8.936929 14.656650 0.000000
8.936929 15.949543 0.000000
8.936929 17.242436 0.000000
8.936929 18.535329 0.000000
8.936929 19.828222 0.000000
8.936929 21.121115 0.000000
8.936929 22.414008 0.000000
8.936929 23.706901 0.000000
8.936929 24.999794 0.000000
8.936929 26.292687 0.000000
8.936929 27.585581 0.000000
8.936929 28.878474 0.000000
8.936929 30.171367 0.000000
8.936929 31.464260 0.000000
8.936929 32.757153 0.000000
8.936929 34.050046 0.000000
8.936929 35.342939 0.000000
8.936929 36.635832 0.000000
8.936929 37.928725 0.000000
8.936929 39.221618 0.000000
8.936929 40.514511 0.000000
8.936929 41.807404 0.000000
8.936929 43.100297 0.000000
8.936929 44.393190 0.000000
8.936929 45.686083 0.000000
10.115482 10.542502 0.000000
10.115482 11.812478 0.000000
10.115482 13.082455 0.000000
10.115482 14.352432 0.000000
10.115482 15.622409 0.000000
10.115482 16.892385 0.000000
10.115482 18.162362 0.000000
10.115482 19.432339 0.000000
10.115482 20.702316 0.000000
10.115482 21.972292 0.000000
10.115482 23.242269 0.000000
10.115482 24.512246 0.000000
10.115482 25.782222 0.000000
10.115482 27.052199 0.000000
10.115482 28.322176 0.000000
10.115482 29.592153 0.000000
10.115482 30.862129 0.000000
10.115482 32.132106 0.000000
10.115482 33.402083 0.000000
10.115482 34.672060 0.000000
10.115482 35.942036 0.000000
10.115482 37.212013 0.000000
10.115482 38.481990 0.000000
10.115482 39.751967 0.000000
10.115482 41.021943 0.000000
10.115482 42.291920 0.000000
10.115482 43.561897 0.000000
10.115482 44.831874 0.000000
10.115482 46.101850 0.000000
11.270925 11.579191 0.000000
11.270925 12.826701 0.000000
11.270925 14.074211 0.000000
11.270925 15.321721 0.000000
11.270925 16.569231 0.000000
11.270925 17.816740 0.000000
11.270925 19.064250 0.000000
11.270925 20.311760 0.000000
11.270925 21.559270 0.000000
11.270925 22.806779 0.000000
11.270925 24.054289 0.000000
11.270925 25.301799 0.000000
11.270925 26.549309 0.000000
11.270925 27.796819 0.000000
11.270925 29.044328 0.000000
11.270925 30.291838 0.000000
11.270925 31.539348 0.000000
11.270925 32.786858 0.000000
11.270925 34.034368 0.000000
11.270925 35.281877 0.000000
11.270925 36.529387 0.000000
11.270925 37.776897 0.000000
11.270925 39.024407 0.000000
11.270925 40.271916 0.000000
11.270925 41.519426 0.000000
11.270925 42.766936 0.000000
11.270925 44.014446 0.000000
11.270925 45.261956 0.000000
11.270925 46.509465 0.000000
12.403714 12.595554 0.000000
12.403714 13.821037 0.000000
12.403714 15.046521 0.000000
12.403714 16.272004 0.000000
12.403714 17.497487 0.000000
12.403714 18.722971 0.000000
12.403714 19.948454 0.000000
12.403714 21.173938 0.000000
12.403714 22.399421 0.000000
12.403714 23.624904 0.000000
12.403714 24.850388 0.000000
12.403714 26.075871 0.000000
12.403714 27.301354 0.000000
12.403714 28.526838 0.000000
12.403714 29.752321 0.000000
12.403714 30.977804 0.000000
12.403714 32.203288 0.000000
12.403714 33.428771 0.000000
12.403714 34.654254 0.000000
12.403714 35.879738 0.000000
12.403714 37.105221 0.000000
12.403714 38.330704 0.000000
12.403714 39.556188 0.000000
12.403714 40.781671 0.000000
12.403714 42.007154 0.000000
12.403714 43.232638 0.000000
12.403714 44.458121 0.000000
12.403714 45.683604 0.000000
12.403714 46.909088 0.000000
13.514290 13.591988 0.000000
13.514290 14.795877 0.000000
13.514290 15.999766 0.000000
13.514290 17.203654 0.000000
13.514290 18.407543 0.000000
13.514290 19.611432 0.000000
13.514290 20.815321 0.000000
13.514290 22.019210 0.000000
13.514290 23.223098 0.000000
13.514290 24.426987 0.000000
13.514290 25.630876 0.000000
13.514290 26.834765 0.000000
13.514290 28.038654 0.000000
13.514290 29.242542 0.000000
13.514290 30.446431 0.000000
13.514290 31.650320 0.000000
13.514290 32.854209 0.000000
13.514290 34.058098 0.000000
13.514290 35.261987 0.000000
13.514290 36.465875 0.000000
13.514290 37.669764 0.000000
13.514290 38.873653 0.000000
13.514290 40.077542 0.000000
13.514290 41.281431 0.000000
13.514290 42.485319 0.000000
13.514290 43.689208 0.000000
13.514290 44.893097 0.000000
13.514290 46.096986 0.000000
13.514290 47.300875 0.000000
14.603091 14.568884 0.000000
14.603091 15.751602 0.000000
14.603091 16.934319 0.000000
14.603091 18.117037 0.000000
14.603091 19.299755 0.000000
14.603091 20.482472 0.000000
14.603091 21.665190 0.000000
14.603091 22.847908 0.000000
14.603091 24.030626 0.000000
14.603091 25.213343 0.000000
14.603091 26.396061 0.000000
14.603091 27.578779 0.000000
14.603091 28.761496 0.000000
14.603091 29.944214 0.000000
14.603091 31.126932 0.000000
14.603091 32.309649 0.000000
14.603091 33.492367 0.000000
14.603091 34.675085 0.000000
14.603091 35.857802 0.000000
14.603091 37.040520 0.000000
14.603091 38.223238 0.000000
14.603091 39.405955 0.000000
14.603091 40.588673 0.000000
14.603091 41.771391 0.000000
14.603091 42.954108 0.000000
14.603091 44.136826 0.000000
14.603091 45.319544 0.000000
14.603091 46.502262 0.000000
14.603091 47.684979 0.000000
15.670542 15.526625 0.000000
15.670542 16.688587 0.000000
15.670542 17.850549 0.000000
15.670542 19.012510 0.000000
15.670542 20.174472 0.000000
15.670542 21.336434 0.000000
15.670542 22.498395 0.000000
15.670542 23.660357 0.000000
15.670542 24.822319 0.000000
15.670542 25.984280 0.000000
15.670542 27.146242 0.000000
15.670542 28.308204 0.000000
15.670542 29.470165 0.000000
15.670542 30.632127 0.000000
15.670542 31.794089 0.000000
15.670542 32.956051 0.000000
15.670542 34.118012 0.000000
15.670542 35.279974 0.000000
15.670542 36.441936 0.000000
15.670542 37.603897 0.000000
15.670542 38.765859 0.000000
15.670542 39.927821 0.000000
15.670542 41.089782 0.000000
15.670542 42.251744 0.000000
15.670542 43.413706 0.000000
15.670542 44.575667 0.000000
15.670542 45.737629 0.000000
15.670542 46.899591 0.000000
15.670542 48.061552 0.000000
16.717063 16.465587 0.000000
16.717063 17.607200 0.000000
16.717063 18.748813 0.000000
16.717063 19.890425 0.000000
16.717063 21.032038 0.000000
16.717063 22.173651 0.000000
16.717063 23.315263 0.000000
16.717063 24.456876 0.000000
16.717063 25.598489 0.000000
16.717063 26.740101 0.000000
16.717063 27.881714 0.000000
16.717063 29.023327 0.000000
16.717063 30.164939 0.000000
16.717063 31.306552 0.000000
16.717063 32.448165 0.000000
16.717063 33.589777 0.000000
16.717063 34.731390 0.000000
16.717063 35.873002 0.000000
16.717063 37.014615 0.000000
16.717063 38.156228 0.000000
16.717063 39.297840 0.000000
16.717063 40.439453 0.000000
16.717063 41.581066 0.000000
16.717063 42.722678 0.000000
16.717063 43.864291 0.000000
16.717063 45.005904 0.000000
16.717063 46.147516 0.000000
16.717063 47.289129 0.000000
16.717063 48.430742 0.000000
17.743064 17.386138 0.000000
17.743064 18.507801 0.000000
17.743064 19.629464 0.000000
17.743064 20.751126 0.000000
17.743064 21.872789 0.000000
17.743064 22.994451 0.000000
17.743064 24.116114 0.000000
17.743064 25.237777 0.000000
17.743064 26.359439 0.000000
17.743064 27.481102 0.000000
17.743064 28.602765 0.000000
17.743064 29.724427 0.000000
17.743064 30.846090 0.000000
17.743064 31.967753 0.000000
17.743064 33.089415 0.000000
17.743064 34.211078 0.000000
17.743064 35.332740 0.000000
17.743064 36.454403 0.000000
17.743064 37.576066 0.000000
17.743064 38.697728 0.000000
17.743064 39.819391 0.000000
17.743064 40.941054 0.000000
17.743064 42.062716 0.000000
17.743064 43.184379 0.000000
17.743064 44.306042 0.000000
17.743064 45.427704 0.000000
17.743064 46.549367 0.000000
17.743064 47.671029 0.000000
17.743064 48.792692 0.000000
18.748948 18.288639 0.000000
18.748948 19.390743 0.000000
18.748948 20.492847 0.000000
18.748948 21.594951 0.000000
18.748948 22.697054 0.000000
18.748948 23.799158 0.000000
18.748948 24.901262 0.000000
18.748948 26.003366 0.000000
18.748948 27.105470 0.000000
18.748948 28.207573 0.000000
18.748948 29.309677 0.000000
18.748948 30.411781 0.000000
18.748948 31.513885 0.000000
18.748948 32.615989 0.000000
18.748948 33.718092 0.000000
18.748948 34.820196 0.000000
18.748948 35.922300 0.000000
18.748948 37.024404 0.000000
18.748948 38.126507 0.000000
18.748948 39.228611 0.000000
18.748948 40.330715 0.000000
18.748948 41.432819 0.000000
18.748948 42.534923 0.000000
18.748948 43.637026 0.000000
18.748948 44.739130 0.000000
18.748948 45.841234 0.000000
18.748948 46.943338 0.000000
18.748948 48.045442 0.000000
18.748948 49.147545 0.000000
19.735108 19.173444 0.000000
19.735108 20.256372 0.000000
19.735108 21.339301 0.000000
19.735108 22.422229 0.000000
19.735108 23.505158 0.000000
19.735108 24.588086 0.000000
19.735108 25.671015 0.000000
19.735108 26.753943 0.000000
19.735108 27.836872 0.000000
19.735108 28.919800 0.000000
19.735108 30.002729 0.000000
19.735108 31.085657 0.000000
19.735108 32.168586 0.000000
19.735108 33.251514 0.000000
19.735108 34.334442 0.000000
19.735108 35.417371 0.000000
19.735108 36.500299 0.000000
19.735108 37.583228 0.000000
19.735108 38.666156 0.000000
19.735108 39.749085 0.000000
19.735108 40.832013 0.000000
19.735108 41.914942 0.000000
19.735108 42.997870 0.000000
19.735108 44.080799 0.000000
19.735108 45.163727 0.000000
19.735108 46.246655 0.000000
19.735108 47.329584 0.000000
19.735108 48.412512 0.000000
19.735108 49.495441 0.000000
20.701932 20.040900 0.000000
20.701932 21.105029 0.000000
20.701932 22.169158 0.000000
20.701932 23.233287 0.000000
20.701932 24.297416 0.000000
20.701932 25.361545 0.000000
20.701932 26.425674 0.000000
20.701932 27.489804 0.000000
20.701932 28.553933 0.000000
20.701932 29.618062 0.000000
20.701932 30.682191 0.000000
20.701932 31.746320 0.000000
20.701932 32.810449 0.000000
20.701932 33.874578 0.000000
20.701932 34.938707 0.000000
20.701932 36.002836 0.000000
20.701932 37.066965 0.000000
20.701932 38.131095 0.000000
20.701932 39.195224 0.000000
20.701932 40.259353 0.000000
20.701932 41.323482 0.000000
20.701932 42.387611 0.000000
20.701932 43.451740 0.000000
20.701932 44.515869 0.000000
20.701932 45.579998 0.000000
20.701932 46.644127 0.000000
20.701932 47.708257 0.000000
20.701932 48.772386 0.000000
20.701932 49.836515 0.000000
21.649798 20.891347 0.000000
21.649798 21.937045 0.000000
21.649798 22.982743 0.000000
21.649798 24.028442 0.000000
21.649798 25.074140 0.000000
21.649798 26.119838 0.000000
21.649798 27.165537 0.000000
21.649798 28.211235 0.000000
21.649798 29.256934 0.000000
21.649798 30.302632 0.000000
21.649798 31.348330 0.000000
21.649798 32.394029 0.000000
21.649798 33.439727 0.000000
21.649798 34.485425 0.000000
21.649798 35.531124 0.000000
21.649798 36.576822 0.000000
21.649798 37.622521 0.000000
21.649798 38.668219 0.000000
21.649798 39.713917 0.000000
21.649798 40.759616 0.000000
21.649798 41.805314 0.000000
21.649798 42.851012 0.000000
21.649798 43.896711 0.000000
21.649798 44.942409 0.000000
21.649798 45.988107 0.000000
21.649798 47.033806 0.000000
21.649798 48.079504 0.000000
21.649798 49.125203 0.000000
21.649798 50.170901 0.000000
22.579079 21.725118 0.000000
22.579079 22.752747 0.000000
22.579079 23.780376 0.000000
22.579079 24.808005 0.000000
22.579079 25.835634 0.000000
22.579079 26.863263 0.000000
22.579079 27.890892 0.000000
22.579079 28.918521 0.000000
22.579079 29.946150 0.000000
22.579079 30.973779 0.000000
22.579079 32.001408 0.000000
22.579079 33.029037 0.000000
22.579079 34.056666 0.000000
22.579079 35.084295 0.000000
22.579079 36.111924 0.000000
22.579079 37.139553 0.000000
22.579079 38.167182 0.000000
22.579079 39.194811 0.000000
22.579079 40.222440 0.000000
22.579079 41.250069 0.000000
22.579079 42.277698 0.000000
22.579079 43.305327 0.000000
22.579079 44.332956 0.000000
22.579079 45.360585 0.000000
22.579079 46.388214 0.000000
22.579079 47.415844 0.000000
22.579079 48.443473 0.000000
22.579079 49.471102 0.000000
22.579079 50.498731 0.000000
23.490138 22.542541 0.000000
23.490138 23.552455 0.000000
23.490138 24.562369 0.000000
23.490138 25.572283 0.000000
23.490138 26.582197 0.000000
23.490138 27.592111 0.000000
23.490138 28.602025 0.000000
23.490138 29.611939 0.000000
23.490138 30.621853 0.000000
23.490138 31.631767 0.000000
23.490138 32.641681 0.000000
23.490138 33.651595 0.000000
23.490138 34.661509 0.000000
23.490138 35.671423 0.000000
23.490138 36.681336 0.000000
23.490138 37.691250 0.000000
23.490138 38.701164 0.000000
23.490138 39.711078 0.000000
23.490138 40.720992 0.000000
23.490138 41.730906 0.000000
23.490138 42.740820 0.000000
23.490138 43.750734 0.000000
23.490138 44.760648 0.000000
23.490138 45.770562 0.000000
23.490138 46.780476 0.000000
23.490138 47.790390 0.000000
23.490138 48.800304 0.000000
23.490138 49.810218 0.000000
23.490138 50.820132 0.000000
24.383334 23.343936 0.000000
24.383334 24.336482 0.000000
24.383334 25.329028 0.000000
24.383334 26.321575 0.000000
24.383334 27.314121 0.000000
24.383334 28.306667 0.000000
24.383334 29.299214 0.000000
24.383334 30.291760 0.000000
24.383334 31.284306 0.000000
24.383334 32.276852 0.000000
24.383334 33.269399 0.000000
24.383334 34.261945 0.000000
24.383334 35.254491 0.000000
24.383334 36.247038 0.000000
24.383334 37.239584 0.000000
24.383334 38.232130 0.000000
24.383334 39.224676 0.000000
24.383334 40.217223 0.000000
24.383334 41.209769 0.000000
24.383334 42.202315 0.000000
24.383334 43.194861 0.000000
24.383334 44.187408 0.000000
24.383334 45.179954 0.000000
24.383334 46.172500 0.000000
24.383334 47.165047 0.000000
24.383334 48.157593 0.000000
24.383334 49.150139 0.000000
24.383334 50.142685 0.000000
24.383334 51.135232 0.000000
25.259016 24.129617 0.000000
25.259016 25.105136 0.000000
25.259016 26.080655 0.000000
25.259016 27.056175 0.000000
25.259016 28.031694 0.000000
25.259016 29.007213 0.000000
25.259016 29.982732 0.000000
25.259016 30.958251 0.000000
25.259016 31.933770 0.000000
25.259016 32.909289 0.000000
25.259016 33.884809 0.000000
25.259016 34.860328 0.000000
25.259016 35.835847 0.000000
25.259016 36.811366 0.000000
25.259016 37.786885 0.000000
25.259016 38.762404 0.000000
25.259016 39.737923 0.000000
25.259016 40.713442 0.000000
25.259016 41.688962 0.000000
25.259016 42.664481 0.000000
25.259016 43.640000 0.000000
25.259016 44.615519 0.000000
25.259016 45.591038 0.000000
25.259016 46.566557 0.000000
25.259016 47.542076 0.000000
25.259016 48.517596 0.000000
25.259016 49.493115 0.000000
25.259016 50.468634 0.000000
25.259016 51.444153 0.000000
26.117528 24.899893 0.000000
26.117528 25.858719 0.000000
26.117528 26.817545 0.000000
26.117528 27.776371 0.000000
26.117528 28.735196 0.000000
26.117528 29.694022 0.000000
26.117528 30.652848 0.000000
26.117528 31.611674 0.000000
26.117528 32.570500 0.000000
26.117528 33.529326 0.000000
26.117528 34.488152 0.000000
26.117528 35.446977 0.000000
26.117528 36.405803 0.000000
26.117528 37.364629 0.000000
26.117528 38.323455 0.000000
26.117528 39.282281 0.000000
26.117528 40.241107 0.000000
26.117528 41.199932 0.000000
26.117528 42.158758 0.000000
26.117528 43.117584 0.000000
26.117528 44.076410 0.000000
26.117528 45.035236 0.000000
26.117528 45.994062 0.000000
26.117528 46.952888 0.000000
26.117528 47.911713 0.000000
26.117528 48.870539 0.000000
26.117528 49.829365 0.000000
26.117528 50.788191 0.000000
26.117528 51.747017 0.000000
26.959206 25.655066 0.000000
26.959206 26.597525 0.000000
26.959206 27.539985 0.000000
26.959206 28.482445 0.000000
26.959206 29.424905 0.000000
26.959206 30.367365 0.000000
26.959206 31.309825 0.000000
26.959206 32.252285 0.000000
26.959206 33.194745 0.000000
26.959206 34.137204 0.000000
26.959206 35.079664 0.000000
26.959206 36.022124 0.000000
26.959206 36.964584 0.000000
26.959206 37.907044 0.000000
26.959206 38.849504 0.000000
26.959206 39.791964 0.000000
26.959206 40.734424 0.000000
26.959206 41.676883 0.000000
26.959206 42.619343 0.000000
26.959206 43.561803 0.000000
26.959206 44.504263 0.000000
26.959206 45.446723 0.000000
26.959206 46.389183 0.000000
26.959206 47.331643 0.000000
26.959206 48.274103 0.000000
26.959206 49.216563 0.000000
26.959206 50.159022 0.000000
26.959206 51.101482 0.000000
26.959206 52.043942 0.000000
27.784381 26.395431 0.000000
27.784381 27.321845 0.000000
27.784381 28.248260 0.000000
27.784381 29.174675 0.000000
27.784381 30.101090 0.000000
27.784381 31.027505 0.000000
27.784381 31.953920 0.000000
27.784381 32.880334 0.000000
27.784381 33.806749 0.000000
27.784381 34.733164 0.000000
27.784381 35.659579 0.000000
27.784381 36.585994 0.000000
27.784381 37.512408 0.000000
27.784381 38.438823 0.000000
27.784381 39.365238 0.000000
27.784381 40.291653 0.000000
27.784381 41.218068 0.000000
27.784381 42.144483 0.000000
27.784381 43.070897 0.000000
27.784381 43.997312 0.000000
27.784381 44.923727 0.000000
27.784381 45.850142 0.000000
27.784381 46.776557 0.000000
27.784381 47.702971 0.000000
27.784381 48.629386 0.000000
27.784381 49.555801 0.000000
27.784381 50.482216 0.000000
27.784381 51.408631 0.000000
27.784381 52.335045 0.000000
28.593376 27.121279 0.000000
28.593376 28.031963 0.000000
28.593376 28.942648 0.000000
28.593376 29.853332 0.000000
28.593376 30.764016 0.000000
28.593376 31.674701 0.000000
28.593376 32.585385 0.000000
28.593376 33.496069 0.000000
28.593376 34.406754 0.000000
28.593376 35.317438 0.000000
28.593376 36.228122 0.000000
28.593376 37.138807 0.000000
28.593376 38.049491 0.000000
28.593376 38.960175 0.000000
28.593376 39.870860 0.000000
28.593376 40.781544 0.000000
28.593376 41.692229 0.000000
28.593376 42.602913 0.000000
28.593376 43.513597 0.000000
28.593376 44.424282 0.000000
28.593376 45.334966 0.000000
28.593376 46.245650 0.000000
28.593376 47.156335 0.000000
28.593376 48.067019 0.000000
28.593376 48.977703 0.000000
28.593376 49.888388 0.000000
28.593376 50.799072 0.000000
28.593376 51.709757 0.000000
28.593376 52.620441 0.000000
29.386508 27.832895 0.000000
29.386508 28.728157 0.000000
29.386508 29.623419 0.000000
29.386508 30.518682 0.000000
29.386508 31.413944 0.000000
29.386508 32.309206 0.000000
29.386508 33.204469 0.000000
29.386508 34.099731 0.000000
29.386508 34.994993 0.000000
29.386508 35.890256 0.000000
29.386508 36.785518 0.000000
29.386508 37.680780 0.000000
29.386508 38.576043 0.000000
29.386508 39.471305 0.000000
29.386508 40.366567 0.000000
29.386508 41.261830 0.000000
29.386508 42.157092 0.000000
29.386508 43.052354 0.000000
29.386508 43.947617 0.000000
29.386508 44.842879 0.000000
29.386508 45.738142 0.000000
29.386508 46.633404 0.000000
29.386508 47.528666 0.000000
29.386508 48.423929 0.000000
29.386508 49.319191 0.000000
29.386508 50.214453 0.000000
29.386508 51.109716 0.000000
29.386508 52.004978 0.000000
29.386508 52.900240 0.000000
30.164089 28.530557 0.000000
30.164089 29.410700 0.000000
30.164089 30.290843 0.000000
30.164089 31.170985 0.000000
30.164089 32.051128 0.000000
30.164089 32.931271 0.000000
30.164089 33.811414 0.000000
30.164089 34.691556 0.000000
30.164089 35.571699 0.000000
30.164089 36.451842 0.000000
30.164089 37.331984 0.000000
30.164089 38.212127 0.000000
30.164089 39.092270 0.000000
30.164089 39.972413 0.000000
30.164089 40.852555 0.000000
30.164089 41.732698 0.000000
30.164089 42.612841 0.000000
30.164089 43.492983 0.000000
30.164089 44.373126 0.000000
30.164089 45.253269 0.000000
30.164089 46.133412 0.000000
30.164089 47.013554 0.000000
30.164089 47.893697 0.000000
30.164089 48.773840 0.000000
30.164089 49.653983 0.000000
30.164089 50.534125 0.000000
30.164089 51.414268 0.000000
30.164089 52.294411 0.000000
30.164089 53.174553 0.000000
30.926422 29.214540 0.000000
30.926422 30.079860 0.000000
30.926422 30.945179 0.000000
30.926422 31.810499 0.000000
30.926422 32.675818 0.000000
30.926422 33.541138 0.000000
30.926422 34.406458 0.000000
30.926422 35.271777 0.000000
30.926422 36.137097 0.000000
30.926422 37.002416 0.000000
30.926422 37.867736 0.000000
30.926422 38.733055 0.000000
30.926422 39.598375 0.000000
30.926422 40.463694 0.000000
30.926422 41.329014 0.000000
30.926422 42.194334 0.000000
30.926422 43.059653 0.000000
30.926422 43.924973 0.000000
30.926422 44.790292 0.000000
30.926422 45.655612 0.000000
30.926422 46.520931 0.000000
30.926422 47.386251 0.000000
30.926422 48.251571 0.000000
30.926422 49.116890 0.000000
30.926422 49.982210 0.000000
30.926422 50.847529 0.000000
30.926422 51.712849 0.000000
30.926422 52.578168 0.000000
30.926422 53.443488 0.000000
31.673809 29.885112 0.000000
31.673809 30.735899 0.000000
31.673809 31.586686 0.000000
31.673809 32.437473 0.000000
31.673809 33.288260 0.000000
31.673809 34.139047 0.000000
31.673809 34.989834 0.000000
31.673809 35.840621 0.000000
31.673809 36.691408 0.000000
31.673809 37.542195 0.000000
31.673809 38.392982 0.000000
31.673809 39.243769 0.000000
31.673809 40.094556 0.000000
31.673809 40.945343 0.000000
31.673809 41.796130 0.000000
31.673809 42.646917 0.000000
31.673809 43.497705 0.000000
31.673809 44.348492 0.000000
31.673809 45.199279 0.000000
31.673809 46.050066 0.000000
31.673809 46.900853 0.000000
31.673809 47.751640 0.000000
31.673809 48.602427 0.000000
31.673809 49.453214 0.000000
31.673809 50.304001 0.000000
31.673809 51.154788 0.000000
31.673809 52.005575 0.000000
31.673809 52.856362 0.000000
31.673809 53.707149 0.000000
32.406540 30.542535 0.000000
32.406540 31.379074 0.000000
32.406540 32.215614 0.000000
32.406540 33.052153 0.000000
32.406540 33.888693 0.000000
32.406540 34.725232 0.000000
32.406540 35.561772 0.000000
32.406540 36.398311 0.000000
32.406540 37.234851 0.000000
32.406540 38.071390 0.000000
32.406540 38.907930 0.000000
32.406540 39.744469 0.000000
32.406540 40.581009 0.000000
32.406540 41.417548 0.000000
32.406540 42.254088 0.000000
32.406540 43.090627 0.000000
32.406540 43.927167 0.000000
32.406540 44.763706 0.000000
32.406540 45.600246 0.000000
32.406540 46.436785 0.000000
32.406540 47.273325 0.000000
32.406540 48.109864 0.000000
32.406540 48.946404 0.000000
32.406540 49.782943 0.000000
32.406540 50.619483 0.000000
32.406540 51.456022 0.000000
32.406540 52.292562 0.000000
32.406540 53.129101 0.000000
32.406540 53.965641 0.000000
33.124904 31.187067 0.000000
33.124904 32.009638 0.000000
33.124904 32.832210 0.000000
33.124904 33.654781 0.000000
33.124904 34.477352 0.000000
33.124904 35.299924 0.000000
33.124904 36.122495 0.000000
33.124904 36.945066 0.000000
33.124904 37.767637 0.000000
33.124904 38.590209 0.000000
33.124904 39.412780 0.000000
33.124904 40.235351 0.000000
33.124904 41.057923 0.000000
33.124904 41.880494 0.000000
33.124904 42.703065 0.000000
33.124904 43.525637 0.000000
33.124904 44.348208 0.000000
33.124904 45.170779 0.000000
33.124904 45.993350 0.000000
33.124904 46.815922 0.000000
33.124904 47.638493 0.000000
33.124904 48.461064 0.000000
33.124904 49.283636 0.000000
33.124904 50.106207 0.000000
33.124904 50.928778 0.000000
33.124904 51.751350 0.000000
33.124904 52.573921 0.000000
33.124904 53.396492 0.000000
33.124904 54.219064 0.000000
33.829183 31.818962 0.000000
33.829183 32.627839 0.000000
33.829183 33.436716 0.000000
33.829183 34.245593 0.000000
33.829183 35.054470 0.000000
33.829183 35.863347 0.000000
33.829183 36.672224 0.000000
33.829183 37.481101 0.000000
33.829183 38.289978 0.000000
33.829183 39.098855 0.000000
33.829183 39.907732 0.000000
33.829183 40.716608 0.000000
33.829183 41.525485 0.000000
33.829183 42.334362 0.000000
33.829183 43.143239 0.000000
33.829183 43.952116 0.000000
33.829183 44.760993 0.000000
33.829183 45.569870 0.000000
33.829183 46.378747 0.000000
33.829183 47.187624 0.000000
33.829183 47.996501 0.000000
33.829183 48.805378 0.000000
33.829183 49.614255 0.000000
33.829183 50.423132 0.000000
33.829183 51.232009 0.000000
33.829183 52.040886 0.000000
33.829183 52.849763 0.000000
33.829183 53.658640 0.000000
33.829183 54.467517 0.000000
34.519652 32.438466 0.000000
34.519652 33.233917 0.000000
34.519652 34.029368 0.000000
34.519652 34.824820 0.000000
34.519652 35.620271 0.000000
34.519652 36.415722 0.000000
34.519652 37.211173 0.000000
34.519652 38.006624 0.000000
34.519652 38.802076 0.000000
34.519652 39.597527 0.000000
34.519652 40.392978 0.000000
34.519652 41.188429 0.000000
34.519652 41.983880 0.000000
34.519652 42.779332 0.000000
34.519652 43.574783 0.000000
34.519652 44.370234 0.000000
34.519652 45.165685 0.000000
34.519652 45.961136 0.000000
34.519652 46.756588 0.000000
34.519652 47.552039 0.000000
34.519652 48.347490 0.000000
34.519652 49.142941 0.000000
34.519652 49.938392 0.000000
34.519652 50.733844 0.000000
34.519652 51.529295 0.000000
34.519652 52.324746 0.000000
34.519652 53.120197 0.000000
34.519652 53.915648 0.000000
34.519652 54.711100 0.000000
35.196583 33.045823 0.000000
35.196583 33.828112 0.000000
35.196583 34.610401 0.000000
35.196583 35.392689 0.000000
35.196583 36.174978 0.000000
35.196583 36.957267 0.000000
35.196583 37.739555 0.000000
35.196583 38.521844 0.000000
35.196583 39.304133 0.000000
35.196583 40.086421 0.000000
35.196583 40.868710 0.000000
35.196583 41.650999 0.000000
35.196583 42.433287 0.000000
35.196583 43.215576 0.000000
35.196583 43.997864 0.000000
35.196583 44.780153 0.000000
35.196583 45.562442 0.000000
35.196583 46.344730 0.000000
35.196583 47.127019 0.000000
35.196583 47.909308 0.000000
35.196583 48.691596 0.000000
35.196583 49.473885 0.000000
35.196583 50.256174 0.000000
35.196583 51.038462 0.000000
35.196583 51.820751 0.000000
35.196583 52.603040 0.000000
35.196583 53.385328 0.000000
35.196583 54.167617 0.000000
35.196583 54.949906 0.000000
35.860241 33.641272 0.000000
35.860241 34.410656 0.000000
35.860241 35.180040 0.000000
35.860241 35.949424 0.000000
35.860241 36.718808 0.000000
35.860241 37.488193 0.000000
35.860241 38.257577 0.000000
35.860241 39.026961 0.000000
35.860241 39.796345 0.000000
35.860241 40.565729 0.000000
35.860241 41.335114 0.000000
35.860241 42.104498 0.000000
35.860241 42.873882 0.000000
35.860241 43.643266 0.000000
35.860241 44.412650 0.000000
35.860241 45.182035 0.000000
35.860241 45.951419 0.000000
35.860241 46.720803 0.000000
35.860241 47.490187 0.000000
35.860241 48.259571 0.000000
35.860241 49.028956 0.000000
35.860241 49.798340 0.000000
35.860241 50.567724 0.000000
35.860241 51.337108 0.000000
35.860241 52.106493 0.000000
35.860241 52.875877 0.000000
35.860241 53.645261 0.000000
35.860241 54.414645 0.000000
35.860241 55.184029 0.000000
36.510885 34.225044 0.000000
36.510885 34.981777 0.000000
36.510885 35.738510 0.000000
36.510885 36.495243 0.000000
36.510885 37.251976 0.000000
36.510885 38.008708 0.000000
36.510885 38.765441 0.000000
36.510885 39.522174 0.000000
36.510885 40.278907 0.000000
36.510885 41.035639 0.000000
36.510885 41.792372 0.000000
36.510885 42.549105 0.000000
36.510885 43.305838 0.000000
36.510885 44.062571 0.000000
36.510885 44.819303 0.000000
36.510885 45.576036 0.000000
36.510885 46.332769 0.000000
36.510885 47.089502 0.000000
36.510885 47.846234 0.000000
36.510885 48.602967 0.000000
36.510885 49.359700 0.000000
36.510885 50.116433 0.000000
36.510885 50.873166 0.000000
36.510885 51.629898 0.000000
36.510885 52.386631 0.000000
36.510885 53.143364 0.000000
36.510885 53.900097 0.000000
36.510885 54.656830 0.000000
36.510885 55.413562 0.000000
37.148772 34.797371 0.000000
37.148772 35.541700 0.000000
37.148772 36.286030 0.000000
37.148772 37.030359 0.000000
37.148772 37.774688 0.000000
37.148772 38.519018 0.000000
37.148772 39.263347 0.000000
37.148772 40.007677 0.000000
37.148772 40.752006 0.000000
37.148772 41.496336 0.000000
37.148772 42.240665 0.000000
37.148772 42.984994 0.000000
37.148772 43.729324 0.000000
37.148772 44.473653 0.000000
37.148772 45.217983 0.000000
37.148772 45.962312 0.000000
37.148772 46.706642 0.000000
37.148772 47.450971 0.000000
37.148772 48.195300 0.000000
37.148772 48.939630 0.000000
37.148772 49.683959 0.000000
37.148772 50.428289 0.000000
37.148772 51.172618 0.000000
37.148772 51.916948 0.000000
37.148772 52.661277 0.000000
37.148772 53.405606 0.000000
37.148772 54.149936 0.000000
37.148772 54.894265 0.000000
37.148772 55.638595 0.000000
37.774152 35.358475 0.000000
37.774152 36.090644 0.000000
37.774152 36.822813 0.000000
37.774152 37.554983 0.000000
37.774152 38.287152 0.000000
37.774152 39.019321 0.000000
37.774152 39.751491 0.000000
37.774152 40.483660 0.000000
37.774152 41.215829 0.000000
37.774152 41.947998 0.000000
37.774152 42.680168 0.000000
37.774152 43.412337 0.000000
37.774152 44.144506 0.000000
37.774152 44.876675 0.000000
37.774152 45.608845 0.000000
37.774152 46.341014 0.000000
37.774152 47.073183 0.000000
37.774152 47.805353 0.000000
37.774152 48.537522 0.000000
37.774152 49.269691 0.000000
37.774152 50.001860 0.000000
37.774152 50.734030 0.000000
37.774152 51.466199 0.000000
37.774152 52.198368 0.000000
37.774152 52.930538 0.000000
37.774152 53.662707 0.000000
37.774152 54.394876 0.000000
37.774152 55.127045 0.000000
37.774152 55.859215 0.000000
38.387269 35.908577 0.000000
38.387269 36.628825 0.000000
38.387269 37.349072 0.000000
38.387269 38.069320 0.000000
38.387269 38.789567 0.000000
38.387269 39.509815 0.000000
38.387269 40.230062 0.000000
38.387269 40.950310 0.000000
38.387269 41.670558 0.000000
38.387269 42.390805 0.000000
38.387269 43.111053 0.000000
38.387269 43.831300 0.000000
38.387269 44.551548 0.000000
38.387269 45.271795 0.000000
38.387269 45.992043 0.000000
38.387269 46.712290 0.000000
38.387269 47.432538 0.000000
38.387269 48.152786 0.000000
38.387269 48.873033 0.000000
38.387269 49.593281 0.000000
38.387269 50.313528 0.000000
38.387269 51.033776 0.000000
38.387269 51.754023 0.000000
38.387269 52.474271 0.000000
38.387269 53.194518 0.000000
38.387269 53.914766 0.000000
38.387269 54.635014 0.000000
38.387269 55.355261 0.000000
38.387269 56.075509 0.000000
38.988364 36.447893 0.000000
38.988364 37.156453 0.000000
38.988364 37.865012 0.000000
38.988364 38.573572 0.000000
38.988364 39.282131 0.000000
38.988364 39.990691 0.000000
38.988364 40.699251 0.000000
38.988364 41.407810 0.000000
38.988364 42.116370 0.000000
38.988364 42.824929 0.000000
38.988364 43.533489 0.000000
38.988364 44.242049 0.000000
38.988364 44.950608 0.000000
38.988364 45.659168 0.000000
38.988364 46.367727 0.000000
38.988364 47.076287 0.000000
38.988364 47.784846 0.000000
38.988364 48.493406 0.000000
38.988364 49.201966 0.000000
38.988364 49.910525 0.000000
38.988364 50.619085 0.000000
38.988364 51.327644 0.000000
38.988364 52.036204 0.000000
38.988364 52.744764 0.000000
38.988364 53.453323 0.000000
38.988364 54.161883 0.000000
38.988364 54.870442 0.000000
38.988364 55.579002 0.000000
38.988364 56.287562 0.000000
39.577673 36.976634 0.000000
39.577673 37.673735 0.000000
39.577673 38.370836 0.000000
39.577673 39.067936 0.000000
39.577673 39.765037 0.000000
39.577673 40.462138 0.000000
39.577673 41.159239 0.000000
39.577673 41.856340 0.000000
39.577673 42.553441 0.000000
39.577673 43.250541 0.000000
39.577673 43.947642 0.000000
39.577673 44.644743 0.000000
39.577673 45.341844 0.000000
39.577673 46.038945 0.000000
39.577673 46.736045 0.000000
39.577673 47.433146 0.000000
39.577673 48.130247 0.000000
39.577673 48.827348 0.000000
39.577673 49.524449 0.000000
39.577673 50.221549 0.000000
39.577673 50.918650 0.000000
39.577673 51.615751 0.000000
39.577673 52.312852 0.000000
39.577673 53.009953 0.000000
39.577673 53.707053 0.000000
39.577673 54.404154 0.000000
39.577673 55.101255 0.000000
39.577673 55.798356 0.000000
39.577673 56.495457 0.000000
40.155426 37.495008 0.000000
40.155426 38.180874 0.000000
40.155426 38.866741 0.000000
40.155426 39.552608 0.000000
40.155426 40.238474 0.000000
40.155426 40.924341 0.000000
40.155426 41.610208 0.000000
40.155426 42.296075 0.000000
40.155426 42.981941 0.000000
40.155426 43.667808 0.000000
40.155426 44.353675 0.000000
40.155426 45.039541 0.000000
40.155426 45.725408 0.000000
40.155426 46.411275 0.000000
40.155426 47.097142 0.000000
40.155426 47.783008 0.000000
40.155426 48.468875 0.000000
40.155426 49.154742 0.000000
40.155426 49.840608 0.000000
40.155426 50.526475 0.000000
40.155426 51.212342 0.000000
40.155426 51.898208 0.000000
40.155426 52.584075 0.000000
40.155426 53.269942 0.000000
40.155426 53.955809 0.000000
40.155426 54.641675 0.000000
40.155426 55.327542 0.000000
40.155426 56.013409 0.000000
40.155426 56.699275 0.000000
40.721852 38.003217 0.000000
40.721852 38.678070 0.000000
40.721852 39.352923 0.000000
40.721852 40.027776 0.000000
40.721852 40.702629 0.000000
40.721852 41.377481 0.000000
40.721852 42.052334 0.000000
40.721852 42.727187 0.000000
40.721852 43.402040 0.000000
40.721852 44.076893 0.000000
40.721852 44.751746 0.000000
40.721852 45.426599 0.000000
40.721852 46.101452 0.000000
40.721852 46.776304 0.000000
40.721852 47.451157 0.000000
40.721852 48.126010 0.000000
40.721852 48.800863 0.000000
40.721852 49.475716 0.000000
40.721852 50.150569 0.000000
40.721852 50.825422 0.000000
40.721852 51.500275 0.000000
40.721852 52.175128 0.000000
40.721852 52.849980 0.000000
40.721852 53.524833 0.000000
40.721852 54.199686 0.000000
40.721852 54.874539 0.000000
40.721852 55.549392 0.000000
40.721852 56.224245 0.000000
40.721852 56.899098 0.000000
41.277171 38.501461 0.000000
41.277171 39.165517 0.000000
41.277171 39.829572 0.000000
41.277171 40.493627 0.000000
41.277171 41.157682 0.000000
41.277171 41.821737 0.000000
41.277171 42.485792 0.000000
41.277171 43.149847 0.000000
41.277171 43.813902 0.000000
41.277171 44.477957 0.000000
41.277171 45.142012 0.000000
41.277171 45.806067 0.000000
41.277171 46.470122 0.000000
41.277171 47.134177 0.000000
41.277171 47.798232 0.000000
41.277171 48.462287 0.000000
41.277171 49.126342 0.000000
41.277171 49.790397 0.000000
41.277171 50.454452 0.000000
41.277171 51.118507 0.000000
41.277171 51.782562 0.000000
41.277171 52.446617 0.000000
41.277171 53.110672 0.000000
41.277171 53.774727 0.000000
41.277171 54.438782 0.000000
41.277171 55.102837 0.000000
41.277171 55.766892 0.000000
41.277171 56.430947 0.000000
41.277171 57.095002 0.000000
41.821601 38.989936 0.000000
41.821601 39.643405 0.000000
41.821601 40.296874 0.000000
41.821601 40.950343 0.000000
41.821601 41.603812 0.000000
41.821601 42.257281 0.000000
41.821601 42.910750 0.000000
41.821601 43.564219 0.000000
41.821601 44.217687 0.000000
41.821601 44.871156 0.000000
41.821601 45.524625 0.000000
41.821601 46.178094 0.000000
41.821601 46.831563 0.000000
41.821601 47.485032 0.000000
41.821601 48.138501 0.000000
41.821601 48.791970 0.000000
41.821601 49.445438 0.000000
41.821601 50.098907 0.000000
41.821601 50.752376 0.000000
41.821601 51.405845 0.000000
41.821601 52.059314 0.000000
41.821601 52.712783 0.000000
41.821601 53.366252 0.000000
41.821601 54.019720 0.000000
41.821601 54.673189 0.000000
41.821601 55.326658 0.000000
41.821601 55.980127 0.000000
41.821601 56.633596 0.000000
41.821601 57.287065 0.000000
42.355356 39.468834 0.000000
42.355356 40.111924 0.000000
42.355356 40.755014 0.000000
42.355356 41.398104 0.000000
42.355356 42.041195 0.000000
42.355356 42.684285 0.000000
42.355356 43.327375 0.000000
42.355356 43.970466 0.000000
42.355356 44.613556 0.000000
42.355356 45.256646 0.000000
42.355356 45.899737 0.000000
42.355356 46.542827 0.000000
42.355356 47.185917 0.000000
42.355356 47.829007 0.000000
42.355356 48.472098 0.000000
42.355356 49.115188 0.000000
42.355356 49.758278 0.000000
42.355356 50.401369 0.000000
42.355356 51.044459 0.000000
42.355356 51.687549 0.000000
42.355356 52.330639 0.000000
42.355356 52.973730 0.000000
42.355356 53.616820 0.000000
42.355356 54.259910 0.000000
42.355356 54.903001 0.000000
42.355356 55.546091 0.000000
42.355356 56.189181 0.000000
42.355356 56.832272 0.000000
42.355356 57.475362 0.000000
42.878646 39.938340 0.000000
42.878646 40.571256 0.000000
42.878646 41.204171 0.000000
42.878646 41.837086 0.000000
42.878646 42.470001 0.000000
42.878646 43.102917 0.000000
42.878646 43.735832 0.000000
42.878646 44.368747 0.000000
42.878646 45.001662 0.000000
42.878646 45.634577 0.000000
42.878646 46.267493 0.000000
42.878646 46.900408 0.000000
42.878646 47.533323 0.000000
42.878646 48.166238 0.000000
42.878646 48.799154 0.000000
42.878646 49.432069 0.000000
42.878646 50.064984 0.000000
42.878646 50.697899 0.000000
42.878646 51.330814 0.000000
42.878646 51.963730 0.000000
42.878646 52.596645 0.000000
42.878646 53.229560 0.000000
42.878646 53.862475 0.000000
42.878646 54.495391 0.000000
42.878646 55.128306 0.000000
42.878646 55.761221 0.000000
42.878646 56.394136 0.000000
42.878646 57.027051 0.000000
42.878646 57.659967 0.000000
43.391675 40.398641 0.000000
43.391675 41.021581 0.000000
43.391675 41.644521 0.000000
43.391675 42.267460 0.000000
43.391675 42.890400 0.000000
43.391675 43.513340 0.000000
43.391675 44.136279 0.000000
43.391675 44.759219 0.000000
43.391675 45.382159 0.000000
43.391675 46.005098 0.000000
43.391675 46.628038 0.000000
43.391675 47.250978 0.000000
43.391675 47.873917 0.000000
43.391675 48.496857 0.000000
43.391675 49.119797 0.000000
43.391675 49.742736 0.000000
43.391675 50.365676 0.000000
43.391675 50.988616 0.000000
43.391675 51.611555 0.000000
43.391675 52.234495 0.000000
43.391675 52.857435 0.000000
43.391675 53.480374 0.000000
43.391675 54.103314 0.000000
43.391675 54.726254 0.000000
43.391675 55.349193 0.000000
43.391675 55.972133 0.000000
43.391675 56.595073 0.000000
43.391675 57.218012 0.000000
43.391675 57.840952 0.000000
43.894644 40.849917 0.000000
43.894644 41.463076 0.000000
43.894644 42.076236 0.000000
43.894644 42.689396 0.000000
43.894644 43.302556 0.000000
43.894644 43.915715 0.000000
43.894644 44.528875 0.000000
43.894644 45.142035 0.000000
43.894644 45.755194 0.000000
43.894644 46.368354 0.000000
43.894644 46.981514 0.000000
43.894644 47.594673 0.000000
43.894644 48.207833 0.000000
43.894644 48.820993 0.000000
43.894644 49.434153 0.000000
43.894644 50.047312 0.000000
43.894644 50.660472 0.000000
43.894644 51.273632 0.000000
43.894644 51.886791 0.000000
43.894644 52.499951 0.000000
43.894644 53.113111 0.000000
43.894644 53.726270 0.000000
43.894644 54.339430 0.000000
43.894644 54.952590 0.000000
43.894644 55.565750 0.000000
43.894644 56.178909 0.000000
43.894644 56.792069 0.000000
43.894644 57.405229 0.000000
43.894644 58.018388 0.000000
44.387751 41.292344 0.000000
44.387751 41.895915 0.000000
44.387751 42.499487 0.000000
44.387751 43.103058 0.000000
44.387751 43.706630 0.000000
44.387751 44.310201 0.000000
44.387751 44.913773 0.000000
44.387751 45.517344 0.000000
44.387751 46.120916 0.000000
44.387751 46.724487 0.000000
44.387751 47.328059 0.000000
44.387751 47.931630 0.000000
44.387751 48.535202 0.000000
44.387751 49.138773 0.000000
44.387751 49.742345 0.000000
44.387751 50.345916 0.000000
44.387751 50.949488 0.000000
44.387751 51.553059 0.000000
44.387751 52.156631 0.000000
44.387751 52.760202 0.000000
44.387751 53.363774 0.000000
44.387751 53.967345 0.000000
44.387751 54.570917 0.000000
44.387751 55.174488 0.000000
44.387751 55.778060 0.000000
44.387751 56.381631 0.000000
44.387751 56.985203 0.000000
44.387751 57.588774 0.000000
44.387751 58.192346 0.000000
44.871190 41.726095 0.000000
44.871190 42.320267 0.000000
44.871190 42.914438 0.000000
44.871190 43.508609 0.000000
44.871190 44.102781 0.000000
44.871190 44.696952 0.000000
44.871190 45.291123 0.000000
44.871190 45.885295 0.000000
44.871190 46.479466 0.000000
44.871190 47.073637 0.000000
44.871190 47.667809 0.000000
44.871190 48.261980 0.000000
44.871190 48.856151 0.000000
44.871190 49.450322 0.000000
44.871190 50.044494 0.000000
44.871190 50.638665 0.000000
44.871190 51.232836 0.000000
44.871190 51.827008 0.000000
44.871190 52.421179 0.000000
44.871190 53.015350 0.000000
44.871190 53.609522 0.000000
44.871190 54.203693 0.000000
44.871190 54.797864 0.000000
44.871190 55.392035 0.000000
44.871190 55.986207 0.000000
44.871190 56.580378 0.000000
44.871190 57.174549 0.000000
44.871190 57.768721 0.000000
44.871190 58.362892 0.000000
45.345149 42.151342 0.000000
45.345149 42.736298 0.000000
45.345149 43.321253 0.000000
45.345149 43.906209 0.000000
45.345149 44.491164 0.000000
45.345149 45.076119 0.000000
45.345149 45.661075 0.000000
45.345149 46.246030 0.000000
45.345149 46.830986 0.000000
45.345149 47.415941 0.000000
45.345149 48.000897 0.000000
45.345149 48.585852 0.000000
45.345149 49.170807 0.000000
45.345149 49.755763 0.000000
45.345149 50.340718 0.000000
45.345149 50.925674 0.000000
45.345149 51.510629 0.000000
45.345149 52.095585 0.000000
45.345149 52.680540 0.000000
45.345149 53.265495 0.000000
45.345149 53.850451 0.000000
45.345149 54.435406 0.000000
45.345149 55.020362 0.000000
45.345149 55.605317 0.000000
45.345149 56.190273 0.000000
45.345149 56.775228 0.000000
45.345149 57.360183 0.000000
45.345149 57.945139 0.000000
45.345149 58.530094 0.000000
45.809815 42.568251 0.000000
45.809815 43.144171 0.000000
45.809815 43.720092 0.000000
45.809815 44.296012 0.000000
45.809815 44.871932 0.000000
45.809815 45.447852 0.000000
45.809815 46.023773 0.000000
45.809815 46.599693 0.000000
45.809815 47.175613 0.000000
45.809815 47.751533 0.000000
45.809815 48.327454 0.000000
45.809815 48.903374 0.000000
45.809815 49.479294 0.000000
45.809815 50.055214 0.000000
45.809815 50.631135 0.000000
45.809815 51.207055 0.000000
45.809815 51.782975 0.000000
45.809815 52.358895 0.000000
45.809815 52.934816 0.000000
45.809815 53.510736 0.000000
45.809815 54.086656 0.000000
45.809815 54.662576 0.000000
45.809815 55.238497 0.000000
45.809815 55.814417 0.000000
45.809815 56.390337 0.000000
45.809815 56.966257 0.000000
45.809815 57.542178 0.000000
45.809815 58.118098 0.000000
45.809815 58.694018 0.000000
46.265370 42.976985 0.000000
46.265370 43.544047 0.000000
46.265370 44.111110 0.000000
46.265370 44.678172 0.000000
46.265370 45.245234 0.000000
46.265370 45.812296 0.000000
46.265370 46.379359 0.000000
46.265370 46.946421 0.000000
46.265370 47.513483 0.000000
46.265370 48.080545 0.000000
46.265370 48.647607 0.000000
46.265370 49.214670 0.000000
46.265370 49.781732 0.000000
46.265370 50.348794 0.000000
46.265370 50.915856 0.000000
46.265370 51.482919 0.000000
46.265370 52.049981 0.000000
46.265370 52.617043 0.000000
46.265370 53.184105 0.000000
46.265370 53.751168 0.000000
46.265370 54.318230 0.000000
46.265370 54.885292 0.000000
46.265370 55.452354 0.000000
46.265370 56.019417 0.000000
46.265370 56.586479 0.000000
46.265370 57.153541 0.000000
46.265370 57.720603 0.000000
46.265370 58.287666 0.000000
46.265370 58.854728 0.000000
46.711993 43.377705 0.000000
46.711993 43.936083 0.000000
46.711993 44.494461 0.000000
46.711993 45.052838 0.000000
46.711993 45.611216 0.000000
46.711993 46.169594 0.000000
46.711993 46.727972 0.000000
46.711993 47.286350 0.000000
46.711993 47.844728 0.000000
46.711993 48.403106 0.000000
46.711993 48.961484 0.000000
46.711993 49.519862 0.000000
46.711993 50.078240 0.000000
46.711993 50.636618 0.000000
46.711993 51.194996 0.000000
46.711993 51.753373 0.000000
46.711993 52.311751 0.000000
46.711993 52.870129 0.000000
46.711993 53.428507 0.000000
46.711993 53.986885 0.000000
46.711993 54.545263 0.000000
46.711993 55.103641 0.000000
46.711993 55.662019 0.000000
46.711993 56.220397 0.000000
46.711993 56.778775 0.000000
46.711993 57.337153 0.000000
46.711993 57.895531 0.000000
46.711993 58.453908 0.000000
46.711993 59.012286 0.000000
47.149858 43.770567 0.000000
47.149858 44.320431 0.000000
47.149858 44.870295 0.000000
47.149858 45.420159 0.000000
47.149858 45.970023 0.000000
47.149858 46.519886 0.000000
47.149858 47.069750 0.000000
47.149858 47.619614 0.000000
47.149858 48.169478 0.000000
47.149858 48.719342 0.000000
47.149858 49.269206 0.000000
47.149858 49.819070 0.000000
47.149858 50.368934 0.000000
47.149858 50.918797 0.000000
47.149858 51.468661 0.000000
47.149858 52.018525 0.000000
47.149858 52.568389 0.000000
47.149858 53.118253 0.000000
47.149858 53.668117 0.000000
47.149858 54.217981 0.000000
47.149858 54.767845 0.000000
47.149858 55.317708 0.000000
47.149858 55.867572 0.000000
47.149858 56.417436 0.000000
47.149858 56.967300 0.000000
47.149858 57.517164 0.000000
47.149858 58.067028 0.000000
47.149858 58.616892 0.000000
47.149858 59.166755 0.000000
47.579138 44.155726 0.000000
47.579138 44.697243 0.000000
47.579138 45.238760 0.000000
47.579138 45.780277 0.000000
47.579138 46.321793 0.000000
47.579138 46.863310 0.000000
47.579138 47.404827 0.000000
47.579138 47.946344 0.000000
47.579138 48.487860 0.000000
47.579138 49.029377 0.000000
47.579138 49.570894 0.000000
47.579138 50.112411 0.000000
47.579138 50.653927 0.000000
47.579138 51.195444 0.000000
47.579138 51.736961 0.000000
47.579138 52.278478 0.000000
47.579138 52.819995 0.000000
47.579138 53.361511 0.000000
47.579138 53.903028 0.000000
47.579138 54.444545 0.000000
47.579138 54.986062 0.000000
47.579138 55.527578 0.000000
47.579138 56.069095 0.000000
47.579138 56.610612 0.000000
47.579138 57.152129 0.000000
47.579138 57.693645 0.000000
47.579138 58.235162 0.000000
47.579138 58.776679 0.000000
47.579138 59.318196 0.000000
POLYGONS 3600 14400
3 0 4 179
3 179 4 180
3 179 180 178
3 178 180 181
3 178 181 177
3 177 181 182
3 177 182 176
3 176 182 183
3 176 183 175
3 175 183 184
3 175 184 174
3 174 184 185
3 174 185 173
3 173 185 186
3 173 186 172
3 172 186 187
3 172 187 171
3 171 187 188
3 171 188 170
3 170 188 189
3 170 189 169
3 169 189 190
3 169 190 168
3 168 190 191
3 168 191 167
3 167 191 192
3 167 192 166
3 166 192 193
3 166 193 165
3 165 193 194
3 165 194 164
3 164 194 195
3 164 195 163
3 163 195 196
3 163 196 162
3 162 196 197
3 162 197 161
3 161 197 198
3 161 198 160
3 160 198 199
3 160 199 159
3 159 199 200
3 159 200 158
3 158 200 201
3 158 201 157
3 157 201 202
3 157 202 156
3 156 202 203
3 156 203 155
3 155 203 204
3 155 204 154
3 154 204 205
3 154 205 153
3 153 205 206
3 153 206 152
3 152 206 207
3 152 207 151
3 151 207 208
3 151 208 3
3 3 208 150
3 4 5 180
3 180 5 209
3 180 209 181
3 181 209 210
3 181 210 182
3 182 210 211
3 182 211 183
3 183 211 212
3 183 212 184
3 184 212 213
3 184 213 185
3 185 213 214
3 185 214 186
3 186 214 215
3 186 215 187
3 187 215 216
3 187 216 188
3 188 216 217
3 188 217 189
3 189 217 218
3 189 218 190
3 190 218 219
3 190 219 191
3 191 219 220
3 191 220 192
3 192 220 221
3 192 221 193
3 193 221 222
3 193 222 194
3 194 222 223
3 194 223 195
3 195 223 224
3 195 224 196
3 196 224 225
3 196 225 197
3 197 225 226
3 197 226 198
3 198 226 227
3 198 227 199
3 199 227 228
3 199 228 200
3 200 228 229
3 200 229 201
3 201 229 230
3 201 230 202
3 202 230 231
3 202 231 203
3 203 231 232
3 203 232 204
3 204 232 233
3 204 233 205
3 205 233 234
3 205 234 206
3 206 234 235
3 206 235 207
3 207 235 236
3 207 236 208
3 208 236 237
3 208 237 150
3 150 237 149
3 5 6 209
3 209 6 238
3 209 238 210
3 210 238 239
3 210 239 211
3 211 239 240
3 211 240 212
3 212 240 241
3 212 241 213
3 213 241 242
3 213 242 214
3 214 242 243
3 214 243 215
3 215 243 244
3 215 244 216
3 216 244 245
3 216 245 217
3 217 245 246
3 217 246 218
3 218 246 247
3 218 247 219
3 219 247 248
3 219 248 220
3 220 248 249
3 220 249 221
3 221 249 250
3 221 250 222
3 222 250 251
3 222 251 223
3 223 251 252
3 223 252 224
3 224 252 253
3 224 253 225
3 225 253 254
3 225 254 226
3 226 254 255
3 226 255 227
3 227 255 256
3 227 256 228
3 228 256 257
3 228 257 229
3 229 257 258
3 229 258 230
3 230 258 259
3 230 259 231
3 231 259 260
3 231 260 232
3 232 260 261
3 232 261 233
3 233 261 262
3 233 262 234
3 234 262 263
3 234 263 235
3 235 263 264
3 235 264 236
3 236 264 265
3 236 265 237
3 237 265 266
3 237 266 149
3 149 266 148
3 6 7 238
3 238 7 267
3 238 267 239
3 239 267 268
3 239 268 240
3 240 268 269
3 240 269 241
3 241 269 270
3 241 270 242
3 242 270 271
3 242 271 243
3 243 271 272
3 243 272 244
3 244 272 273
3 244 273 245
3 245 273 274
3 245 274 246
3 246 274 275
3 246 275 247
3 247 275 276
3 247 276 248
3 248 276 277
3 248 277 249
3 249 277 278
3 249 278 250
3 250 278 279
3 250 279 251
3 251 279 280
3 251 280 252
3 252 280 281
3 252 281 253
3 253 281 282
3 253 282 254
3 254 282 283
3 254 283 255
3 255 283 284
3 255 284 256
3 256 284 285
3 256 285 257
3 257 285 286
3 257 286 258
3 258 286 287
3 258 287 259
3 259 287 288
3 259 288 260
3 260 288 289
3 260 289 261
3 261 289 290
3 261 290 262
3 262 290 291
3 262 291 263
3 263 291 292
3 263 292 264
3 264 292 293
3 264 293 265
3 265 293 294
3 265 294 266
3 266 294 295
3 266 295 148
3 148 295 147
3 7 8 267
3 267 8 296
3 267 296 268
3 268 296 297
3 268 297 269
3 269 297 298
3 269 298 270
3 270 298 299
3 270 299 271
3 271 299 300
3 271 300 272
3 272 300 301
3 272 301 273
3 273 301 302
3 273 302 274
3 274 302 303
3 274 303 275
3 275 303 304
3 275 304 276
3 276 304 305
3 276 305 277
3 277 305 306
3 277 306 278
3 278 306 307
3 278 307 279
3 279 307 308
3 279 308 280
3 280 308 309
3 280 309 281
3 281 309 310
3 281 310 282
3 282 310 311
3 282 311 283
3 283 311 312
3 283 312 284
3 284 312 313
3 284 313 285
3 285 313 314
3 285 314 286
3 286 314 315
3 286 315 287
3 287 315 316
3 287 316 288
3 288 316 317
3 288 317 289
3 289 317 318
3 289 318 290
3 290 318 319
3 290 319 291
3 291 319 320
3 291 320 292
3 292 320 321
3 292 321 293
3 293 321 322
3 293 322 294
3 294 322 323
3 294 323 295
3 295 323 324
3 295 324 147
3 147 324 146
3 8 9 296
3 296 9 325
3 296 325 297
3 297 325 326
3 297 326 298
3 298 326 327
3 298 327 299
3 299 327 328
3 299 328 300
3 300 328 329
3 300 329 301
3 301 329 330
3 301 330 302
3 302 330 331
3 302 331 303
3 303 331 332
3 303 332 304
3 304 332 333
3 304 333 305
3 305 333 334
3 305 334 306
3 306 334 335
3 306 335 307
3 307 335 336
3 307 336 308
3 308 336 337
3 308 337 309
3 309 337 338
3 309 338 310
3 310 338 339
3 310 339 311
3 311 339 340
3 311 340 312
3 312 340 341
3 312 341 313
3 313 341 342
3 313 342 314
3 314 342 343
3 314 343 315
3 315 343 344
3 315 344 316
3 316 344 345
3 316 345 317
3 317 345 346
3 317 346 318
3 318 346 347
3 318 347 319
3 319 347 348
3 319 348 320
3 320 348 349
3 320 349 321
3 321 349 350
3 321 350 322
3 322 350 351
3 322 351 323
3 323 351 352
3 323 352 324
3 324 352 353
3 324 353 146
3 146 353 145
3 9 10 325
3 325 10 354
3 325 354 326
3 326 354 355
3 326 355 327
3 327 355 356
3 327 356 328
3 328 356 357
3 328 357 329
3 329 357 358
3 329 358 330
3 330 358 359
3 330 359 331
3 331 359 360
3 331 360 332
3 332 360 361
3 332 361 333
3 333 361 362
3 333 362 334
3 334 362 363
3 334 363 335
3 335 363 364
3 335 364 336
3 336 364 365
3 336 365 337
3 337 365 366
3 337 366 338
3 338 366 367
3 338 367 339
3 339 367 368
3 339 368 340
3 340 368 369
3 340 369 341
3 341 369 370
3 341 370 342
3 342 370 371
3 342 371 343
3 343 371 372
3 343 372 344
3 344 372 373
3 344 373 345
3 345 373 374
3 345 374 346
3 346 374 375
3 346 375 347
3 347 375 376
3 347 376 348
3 348 376 377
3 348 377 349
3 349 377 378
3 349 378 350
3 350 378 379
3 350 379 351
3 351 379 380
3 351 380 352
3 352 380 381
3 352 381 353
3 353 381 382
3 353 382 145
3 145 382 144
3 10 11 354
3 354 11 383
3 354 383 355
3 355 383 384
3 355 384 356
3 356 384 385
3 356 385 357
3 357 385 386
3 357 386 358
3 358 386 387
3 358 387 359
3 359 387 388
3 359 388 360
3 360 388 389
3 360 389 361
3 361 389 390
3 361 390 362
3 362 390 391
3 362 391 363
3 363 391 392
3 363 392 364
3 364 392 393
3 364 393 365
3 365 393 394
3 365 394 366
3 366 394 395
3 366 395 367
3 367 395 396
3 367 396 368
3 368 396 397
3 368 397 369
3 369 397 398
3 369 398 370
3 370 398 399
3 370 399 371
3 371 399 400
3 371 400 372
3 372 400 401
3 372 401 373
3 373 401 402
3 373 402 374
3 374 402 403
3 374 403 375
3 375 403 404
3 375 404 376
3 376 404 405
3 376 405 377
3 377 405 406
3 377 406 378
3 378 406 407
3 378 407 379
3 379 407 408
3 379 408 380
3 380 408 409
3 380 409 381
3 381 409 410
3 381 410 382
3 382 410 411
3 382 411 144
3 144 411 143
3 11 12 383
3 383 12 412
3 383 412 384
3 384 412 413
3 384 413 385
3 385 413 414
3 385 414 386
3 386 414 415
3 386 415 387
3 387 415 416
3 387 416 388
3 388 416 417
3 388 417 389
3 389 417 418
3 389 418 390
3 390 418 419
3 390 419 391
3 391 419 420
3 391 420 392
3 392 420 421
3 392 421 393
3 393 421 422
3 393 422 394
3 394 422 423
3 394 423 395
3 395 423 424
3 395 424 396
3 396 424 425
3 396 425 397
3 397 425 426
3 397 426 398
3 398 426 427
3 398 427 399
3 399 427 428
3 399 428 400
3 400 428 429
3 400 429 401
3 401 429 430
3 401 430 402
3 402 430 431
3 402 431 403
3 403 431 432
3 403 432 404
3 404 432 433
3 404 433 405
3 405 433 434
3 405 434 406
3 406 434 435
3 406 435 407
3 407 435 436
3 407 436 408
3 408 436 437
3 408 437 409
3 409 437 438
3 409 438 410
3 410 438 439
3 410 439 411
3 411 439 440
3 411 440 143
3 143 440 142
3 12 13 412
3 412 13 441
3 412 441 413
3 413 441 442
3 413 442 414
3 414 442 443
3 414 443 415
3 415 443 444
3 415 444 416
3 416 444 445
3 416 445 417
3 417 445 446
3 417 446 418
3 418 446 447
3 418 447 419
3 419 447 448
3 419 448 420
3 420 448 449
3 420 449 421
3 421 449 450
3 421 450 422
3 422 450 451
3 422 451 423
3 423 451 452
3 423 452 424
3 424 452 453
3 424 453 425
3 425 453 454
3 425 454 426
3 426 454 455
3 426 455 427
3 427 455 456
3 427 456 428
3 428 456 457
3 428 457 429
3 429 457 458
3 429 458 430
3 430 458 459
3 430 459 431
3 431 459 460
3 431 460 432
3 432 460 461
3 432 461 433
3 433 461 462
3 433 462 434
3 434 462 463
3 434 463 435
3 435 463 464
3 435 464 436
3 436 464 465
3 436 465 437
3 437 465 466
3 437 466 438
3 438 466 467
3 438 467 439
3 439 467 468
3 439 468 440
3 440 468 469
3 440 469 142
3 142 469 141
3 13 14 441
3 441 14 470
3 441 470 442
3 442 470 471
3 442 471 443
3 443 471 472
3 443 472 444
3 444 472 473
3 444 473 445
3 445 473 474
3 445 474 446
3 446 474 475
3 446 475 447
3 447 475 476
3 447 476 448
3 448 476 477
3 448 477 449
3 449 477 478
3 449 478 450
3 450 478 479
3 450 479 451
3 451 479 480
3 451 480 452
3 452 480 481
3 452 481 453
3 453 481 482
3 453 482 454
3 454 482 483
3 454 483 455
3 455 483 484
3 455 484 456
3 456 484 485
3 456 485 457
3 457 485 486
3 457 486 458
3 458 486 487
3 458 487 459
3 459 487 488
3 459 488 460
3 460 488 489
3 460 489 461
3 461 489 490
3 461 490 462
3 462 490 491
3 462 491 463
3 463 491 492
3 463 492 464
3 464 492 493
3 464 493 465
3 465 493 494
3 465 494 466
3 466 494 495
3 466 495 467
3 467 495 496
3 467 496 468
3 468 496 497
3 468 497 469
3 469 497 498
3 469 498 141
3 141 498 140
3 14 15 470
3 470 15 499
3 470 499 471
3 471 499 500
3 471 500 472
3 472 500 501
3 472 501 473
3 473 501 502
3 473 502 474
3 474 502 503
3 474 503 475
3 475 503 504
3 475 504 476
3 476 504 505
3 476 505 477
3 477 505 506
3 477 506 478
3 478 506 507
3 478 507 479
3 479 507 508
3 479 508 480
3 480 508 509
3 480 509 481
3 481 509 510
3 481 510 482
3 482 510 511
3 482 511 483
3 483 511 512
3 483 512 484
3 484 512 513
3 484 513 485
3 485 513 514
3 485 514 486
3 486 514 515
3 486 515 487
3 487 515 516
3 487 516 488
3 488 516 517
3 488 517 489
3 489 517 518
3 489 518 490
3 490 518 519
3 490 519 491
3 491 519 520
3 491 520 492
3 492 520 521
3 492 521 493
3 493 521 522
3 493 522 494
3 494 522 523
3 494 523 495
3 495 523 524
3 495 524 496
3 496 524 525
3 496 525 497
3 497 525 526
3 497 526 498
3 498 526 527
3 498 527 140
3 140 527 139
3 15 16 499
3 499 16 528
3 499 528 500
3 500 528 529
3 500 529 501
3 501 529 530
3 501 530 502
3 502 530 531
3 502 531 503
3 503 531 532
3 503 532 504
3 504 532 533
3 504 533 505
3 505 533 534
3 505 534 506
3 506 534 535
3 506 535 507
3 507 535 536
3 507 536 508
3 508 536 537
3 508 537 509
3 509 537 538
3 509 538 510
3 510 538 539
3 510 539 511
3 511 539 540
3 511 540 512
3 512 540 541
3 512 541 513
3 513 541 542
3 513 542 514
3 514 542 543
3 514 543 515
3 515 543 544
3 515 544 516
3 516 544 545
3 516 545 517
3 517 545 546
3 517 546 518
3 518 546 547
3 518 547 519
3 519 547 548
3 519 548 520
3 520 548 549
3 520 549 521
3 521 549 550
3 521 550 522
3 522 550 551
3 522 551 523
3 523 551 552
3 523 552 524
3 524 552 553
3 524 553 525
3 525 553 554
3 525 554 526
3 526 554 555
3 526 555 527
3 527 555 556
3 527 556 139
3 139 556 138
3 16 17 528
3 528 17 557
3 528 557 529
3 529 557 558
3 529 558 530
3 530 558 559
3 530 559 531
3 531 559 560
3 531 560 532
3 532 560 561
3 532 561 533
3 533 561 562
3 533 562 534
3 534 562 563
3 534 563 535
3 535 563 564
3 535 564 536
3 536 564 565
3 536 565 537
3 537 565 566
3 537 566 538
3 538 566 567
3 538 567 539
3 539 567 568
3 539 568 540
3 540 568 569
3 540 569 541
3 541 569 570
3 541 570 542
3 542 570 571
3 542 571 543
3 543 571 572
3 543 572 544
3 544 572 573
3 544 573 545
3 545 573 574
3 545 574 546
3 546 574 575
3 546 575 547
3 547 575 576
3 547 576 548
3 548 576 577
3 548 577 549
3 549 577 578
3 549 578 550
3 550 578 579
3 550 579 551
3 551 579 580
3 551 580 552
3 552 580 581
3 552 581 553
3 553 581 582
3 553 582 554
3 554 582 583
3 554 583 555
3 555 583 584
3 555 584 556
3 556 584 585
3 556 585 138
3 138 585 137
3 17 18 557
3 557 18 586
3 557 586 558
3 558 586 587
3 558 587 559
3 559 587 588
3 559 588 560
3 560 588 589
3 560 589 561
3 561 589 590
3 561 590 562
3 562 590 591
3 562 591 563
3 563 591 592
3 563 592 564
3 564 592 593
3 564 593 565
3 565 593 594
3 565 594 566
3 566 594 595
3 566 595 567
3 567 595 596
3 567 596 568
3 568 596 597
3 568 597 569
3 569 597 598
3 569 598 570
3 570 598 599
3 570 599 571
3 571 599 600
3 571 600 572
3 572 600 601
3 572 601 573
3 573 601 602
3 573 602 574
3 574 602 603
3 574 603 575
3 575 603 604
3 575 604 576
3 576 604 605
3 576 605 577
3 577 605 606
3 577 606 578
3 578 606 607
3 578 607 579
3 579 607 608
3 579 608 580
3 580 608 609
3 580 609 581
3 581 609 610
3 581 610 582
3 582 610 611
3 582 611 583
3 583 611 612
3 583 612 584
3 584 612 613
3 584 613 585
3 585 613 614
3 585 614 137
3 137 614 136
3 18 19 586
3 586 19 615
3 586 615 587
3 587 615 616
3 587 616 588
3 588 616 617
3 588 617 589
3 589 617 618
3 589 618 590
3 590 618 619
3 590 619 591
3 591 619 620
3 591 620 592
3 592 620 621
3 592 621 593
3 593 621 622
3 593 622 594
3 594 622 623
3 594 623 595
3 595 623 624
3 595 624 596
3 596 624 625
3 596 625 597
3 597 625 626
3 597 626 598
3 598 626 627
3 598 627 599
3 599 627 628
3 599 628 600
3 600 628 629
3 600 629 601
3 601 629 630
3 601 630 602
3 602 630 631
3 602 631 603
3 603 631 632
3 603 632 604
3 604 632 633
3 604 633 605
3 605 633 634
3 605 634 606
3 606 634 635
3 606 635 607
3 607 635 636
3 607 636 608
3 608 636 637
3 608 637 609
3 609 637 638
3 609 638 610
3 610 638 639
3 610 639 611
3 611 639 640
3 611 640 612
3 612 640 641
3 612 641 613
3 613 641 642
3 613 642 614
3 614 642 643
3 614 643 136
3 136 643 135
3 19 20 615
3 615 20 644
3 615 644 616
3 616 644 645
3 616 645 617
3 617 645 646
3 617 646 618
3 618 646 647
3 618 647 619
3 619 647 648
3 619 648 620
3 620 648 649
3 620 649 621
3 621 649 650
3 621 650 622
3 622 650 651
3 622 651 623
3 623 651 652
3 623 652 624
3 624 652 653
3 624 653 625
3 625 653 654
3 625 654 626
3 626 654 655
3 626 655 627
3 627 655 656
3 627 656 628
3 628 656 657
3 628 657 629
3 629 657 658
3 629 658 630
3 630 658 659
3 630 659 631
3 631 659 660
3 631 660 632
3 632 660 661
3 632 661 633
3 633 661 662
3 633 662 634
3 634 662 663
3 634 663 635
3 635 663 664
3 635 664 636
3 636 664 665
3 636 665 637
3 637 665 666
3 637 666 638
3 638 666 667
3 638 667 639
3 639 667 668
3 639 668 640
3 640 668 669
3 640 669 641
3 641 669 670
3 641 670 642
3 642 670 671
3 642 671 643
3 643 671 672
3 643 672 135
3 135 672 134
3 20 21 644
3 644 21 673
3 644 673 645
3 645 673 674
3 645 674 646
3 646 674 675
3 646 675 647
3 647 675 676
3 647 676 648
3 648 676 677
3 648 677 649
3 649 677 678
3 649 678 650
3 650 678 679
3 650 679 651
3 651 679 680
3 651 680 652
3 652 680 681
3 652 681 653
3 653 681 682
3 653 682 654
3 654 682 683
3 654 683 655
3 655 683 684
3 655 684 656
3 656 684 685
3 656 685 657
3 657 685 686
3 657 686 658
3 658 686 687
3 658 687 659
3 659 687 688
3 659 688 660
3 660 688 689
3 660 689 661
3 661 689 690
3 661 690 662
3 662 690 691
3 662 691 663
3 663 691 692
3 663 692 664
3 664 692 693
3 664 693 665
3 665 693 694
3 665 694 666
3 666 694 695
3 666 695 667
3 667 695 696
3 667 696 668
3 668 696 697
3 668 697 669
3 669 697 698
3 669 698 670
3 670 698 699
3 670 699 671
3 671 699 700
3 671 700 672
3 672 700 701
3 672 701 134
3 134 701 133
3 21 22 673
3 673 22 702
3 673 702 674
3 674 702 703
3 674 703 675
3 675 703 704
3 675 704 676
3 676 704 705
3 676 705 677
3 677 705 706
3 677 706 678
3 678 706 707
3 678 707 679
3 679 707 708
3 679 708 680
3 680 708 709
3 680 709 681
3 681 709 710
3 681 710 682
3 682 710 711
3 682 711 683
3 683 711 712
3 683 712 684
3 684 712 713
3 684 713 685
3 685 713 714
3 685 714 686
3 686 714 715
3 686 715 687
3 687 715 716
3 687 716 688
3 688 716 717
3 688 717 689
3 689 717 718
3 689 718 690
3 690 718 719
3 690 719 691
3 691 719 720
3 691 720 692
3 692 720 721
3 692 721 693
3 693 721 722
3 693 722 694
3 694 722 723
3 694 723 695
3 695 723 724
3 695 724 696
3 696 724 725
3 696 725 697
3 697 725 726
3 697 726 698
3 698 726 727
3 698 727 699
3 699 727 728
3 699 728 700
3 700 728 729
3 700 729 701
3 701 729 730
3 701 730 133
3 133 730 132
3 22 23 702
3 702 23 731
3 702 731 703
3 703 731 732
3 703 732 704
3 704 732 733
3 704 733 705
3 705 733 734
3 705 734 706
3 706 734 735
3 706 735 707
3 707 735 736
3 707 736 708
3 708 736 737
3 708 737 709
3 709 737 738
3 709 738 710
3 710 738 739
3 710 739 711
3 711 739 740
3 711 740 712
3 712 740 741
3 712 741 713
3 713 741 742
3 713 742 714
3 714 742 743
3 714 743 715
3 715 743 744
3 715 744 716
3 716 744 745
3 716 745 717
3 717 745 746
3 717 746 718
3 718 746 747
3 718 747 719
3 719 747 748
3 719 748 720
3 720 748 749
3 720 749 721
3 721 749 750
3 721 750 722
3 722 750 751
3 722 751 723
3 723 751 752
3 723 752 724
3 724 752 753
3 724 753 725
3 725 753 754
3 725 754 726
3 726 754 755
3 726 755 727
3 727 755 756
3 727 756 728
3 728 756 757
3 728 757 729
3 729 757 758
3 729 758 730
3 730 758 759
3 730 759 132
3 132 759 131
3 23 24 731
3 731 24 760
3 731 760 732
3 732 760 761
3 732 761 733
3 733 761 762
3 733 762 734
3 734 762 763
3 734 763 735
3 735 763 764
3 735 764 736
3 736 764 765
3 736 765 737
3 737 765 766
3 737 766 738
3 738 766 767
3 738 767 739
3 739 767 768
3 739 768 740
3 740 768 769
3 740 769 741
3 741 769 770
3 741 770 742
3 742 770 771
3 742 771 743
3 743 771 772
3 743 772 744
3 744 772 773
3 744 773 745
3 745 773 774
3 745 774 746
3 746 774 775
3 746 775 747
3 747 775 776
3 747 776 748
3 748 776 777
3 748 777 749
3 749 777 778
3 749 778 750
3 750 778 779
3 750 779 751
3 751 779 780
3 751 780 752
3 752 780 781
3 752 781 753
3 753 781 782
3 753 782 754
3 754 782 783
3 754 783 755
3 755 783 784
3 755 784 756
3 756 784 785
3 756 785 757
3 757 785 786
3 757 786 758
3 758 786 787
3 758 787 759
3 759 787 788
3 759 788 131
3 131 788 130
3 24 25 760
3 760 25 789
3 760 789 761
3 761 789 790
3 761 790 762
3 762 790 791
3 762 791 763
3 763 791 792
3 763 792 764
3 764 792 793
3 764 793 765
3 765 793 794
3 765 794 766
3 766 794 795
3 766 795 767
3 767 795 796
3 767 796 768
3 768 796 797
3 768 797 769
3 769 797 798
3 769 798 770
3 770 798 799
3 770 799 771
3 771 799 800
3 771 800 772
3 772 800 801
3 772 801 773
3 773 801 802
3 773 802 774
3 774 802 803
3 774 803 775
3 775 803 804
3 775 804 776
3 776 804 805
3 776 805 777
3 777 805 806
3 777 806 778
3 778 806 807
3 778 807 779
3 779 807 808
3 779 808 780
3 780 808 809
3 780 809 781
3 781 809 810
3 781 810 782
3 782 810 811
3 782 811 783
3 783 811 812
3 783 812 784
3 784 812 813
3 784 813 785
3 785 813 814
3 785 814 786
3 786 814 815
3 786 815 787
3 787 815 816
3 787 816 788
3 788 816 817
3 788 817 130
3 130 817 129
3 25 26 789
3 789 26 818
3 789 818 790
3 790 818 819
3 790 819 791
3 791 819 820
3 791 820 792
3 792 820 821
3 792 821 793
3 793 821 822
3 793 822 794
3 794 822 823
3 794 823 795
3 795 823 824
3 795 824 796
3 796 824 825
3 796 825 797
3 797 825 826
3 797 826 798
3 798 826 827
3 798 827 799
3 799 827 828
3 799 828 800
3 800 828 829
3 800 829 801
3 801 829 830
3 801 830 802
3 802 830 831
3 802 831 803
3 803 831 832
3 803 832 804
3 804 832 833
3 804 833 805
3 805 833 834
3 805 834 806
3 806 834 835
3 806 835 807
3 807 835 836
3 807 836 808
3 808 836 837
3 808 837 809
3 809 837 838
3 809 838 810
3 810 838 839
3 810 839 811
3 811 839 840
3 811 840 812
3 812 840 841
3 812 841 813
3 813 841 842
3 813 842 814
3 814 842 843
3 814 843 815
3 815 843 844
3 815 844 816
3 816 844 845
3 816 845 817
3 817 845 846
3 817 846 129
3 129 846 128
3 26 27 818
3 818 27 847
3 818 847 819
3 819 847 848
3 819 848 820
3 820 848 849
3 820 849 821
3 821 849 850
3 821 850 822
3 822 850 851
3 822 851 823
3 823 851 852
3 823 852 824
3 824 852 853
3 824 853 825
3 825 853 854
3 825 854 826
3 826 854 855
3 826 855 827
3 827 855 856
3 827 856 828
3 828 856 857
3 828 857 829
3 829 857 858
3 829 858 830
3 830 858 859
3 830 859 831
3 831 859 860
3 831 860 832
3 832 860 861
3 832 861 833
3 833 861 862
3 833 862 834
3 834 862 863
3 834 863 835
3 835 863 864
3 835 864 836
3 836 864 865
3 836 865 837
3 837 865 866
3 837 866 838
3 838 866 867
3 838 867 839
3 839 867 868
3 839 868 840
3 840 868 869
3 840 869 841
3 841 869 870
3 841 870 842
3 842 870 871
3 842 871 843
3 843 871 872
3 843 872 844
3 844 872 873
3 844 873 845
3 845 873 874
3 845 874 846
3 846 874 875
3 846 875 128
3 128 875 127
3 27 28 847
3 847 28 876
3 847 876 848
3 848 876 877
3 848 877 849
3 849 877 878
3 849 878 850
3 850 878 879
3 850 879 851
3 851 879 880
3 851 880 852
3 852 880 881
3 852 881 853
3 853 881 882
3 853 882 854
3 854 882 883
3 854 883 855
3 855 883 884
3 855 884 856
3 856 884 885
3 856 885 857
3 857 885 886
3 857 886 858
3 858 886 887
3 858 887 859
3 859 887 888
3 859 888 860
3 860 888 889
3 860 889 861
3 861 889 890
3 861 890 862
3 862 890 891
3 862 891 863
3 863 891 892
3 863 892 864
3 864 892 893
3 864 893 865
3 865 893 894
3 865 894 866
3 866 894 895
3 866 895 867
3 867 895 896
3 867 896 868
3 868 896 897
3 868 897 869
3 869 897 898
3 869 898 870
3 870 898 899
3 870 899 871
3 871 899 900
3 871 900 872
3 872 900 901
3 872 901 873
3 873 901 902
3 873 902 874
3 874 902 903
3 874 903 875
3 875 903 904
3 875 904 127
3 127 904 126
3 28 29 876
3 876 29 905
3 876 905 877
3 877 905 906
3 877 906 878
3 878 906 907
3 878 907 879
3 879 907 908
3 879 908 880
3 880 908 909
3 880 909 881
3 881 909 910
3 881 910 882
3 882 910 911
3 882 911 883
3 883 911 912
3 883 912 884
3 884 912 913
3 884 913 885
3 885 913 914
3 885 914 886
3 886 914 915
3 886 915 887
3 887 915 916
3 887 916 888
3 888 916 917
3 888 917 889
3 889 917 918
3 889 918 890
3 890 918 919
3 890 919 891
3 891 919 920
3 891 920 892
3 892 920 921
3 892 921 893
3 893 921 922
3 893 922 894
3 894 922 923
3 894 923 895
3 895 923 924
3 895 924 896
3 896 924 925
3 896 925 897
3 897 925 926
3 897 926 898
3 898 926 927
3 898 927 899
3 899 927 928
3 899 928 900
3 900 928 929
3 900 929 901
3 901 929 930
3 901 930 902
3 902 930 931
3 902 931 903
3 903 931 932
3 903 932 904
3 904 932 933
3 904 933 126
3 126 933 125
3 29 30 905
3 905 30 934
3 905 934 906
3 906 934 935
3 906 935 907
3 907 935 936
3 907 936 908
3 908 936 937
3 908 937 909
3 909 937 938
3 909 938 910
3 910 938 939
3 910 939 911
3 911 939 940
3 911 940 912
3 912 940 941
3 912 941 913
3 913 941 942
3 913 942 914
3 914 942 943
3 914 943 915
3 915 943 944
3 915 944 916
3 916 944 945
3 916 945 917
3 917 945 946
3 917 946 918
3 918 946 947
3 918 947 919
3 919 947 948
3 919 948 920
3 920 948 949
3 920 949 921
3 921 949 950
3 921 950 922
3 922 950 951
3 922 951 923
3 923 951 952
3 923 952 924
3 924 952 953
3 924 953 925
3 925 953 954
3 925 954 926
3 926 954 955
3 926 955 927
3 927 955 956
3 927 956 928
3 928 956 957
3 928 957 929
3 929 957 958
3 929 958 930
3 930 958 959
3 930 959 931
3 931 959 960
3 931 960 932
3 932 960 961
3 932 961 933
3 933 961 962
3 933 962 125
3 125 962 124
3 30 31 934
3 934 31 963
3 934 963 935
3 935 963 964
3 935 964 936
3 936 964 965
3 936 965 937
3 937 965 966
3 937 966 938
3 938 966 967
3 938 967 939
3 939 967 968
3 939 968 940
3 940 968 969
3 940 969 941
3 941 969 970
3 941 970 942
3 942 970 971
3 942 971 943
3 943 971 972
3 943 972 944
3 944 972 973
3 944 973 945
3 945 973 974
3 945 974 946
3 946 974 975
3 946 975 947
3 947 975 976
3 947 976 948
3 948 976 977
3 948 977 949
3 949 977 978
3 949 978 950
3 950 978 979
3 950 979 951
3 951 979 980
3 951 980 952
3 952 980 981
3 952 981 953
3 953 981 982
3 953 982 954
3 954 982 983
3 954 983 955
3 955 983 984
3 955 984 956
3 956 984 985
3 956 985 957
3 957 985 986
3 957 986 958
3 958 986 987
3 958 987 959
3 959 987 988
3 959 988 960
3 960 988 989
3 960 989 961
3 961 989 990
3 961 990 962
3 962 990 991
3 962 991 124
3 124 991 123
3 31 32 963
3 963 32 992
3 963 992 964
3 964 992 993
3 964 993 965
3 965 993 994
3 965 994 966
3 966 994 995
3 966 995 967
3 967 995 996
3 967 996 968
3 968 996 997
3 968 997 969
3 969 997 998
3 969 998 970
3 970 998 999
3 970 999 971
3 971 999 1000
3 971 1000 972
3 972 1000 1001
3 972 1001 973
3 973 1001 1002
3 973 1002 974
3 974 1002 1003
3 974 1003 975
3 975 1003 1004
3 975 1004 976
3 976 1004 1005
3 976 1005 977
3 977 1005 1006
3 977 1006 978
3 978 1006 1007
3 978 1007 979
3 979 1007 1008
3 979 1008 980
3 980 1008 1009
3 980 1009 981
3 981 1009 1010
3 981 1010 982
3 982 1010 1011
3 982 1011 983
3 983 1011 1012
3 983 1012 984
3 984 1012 1013
3 984 1013 985
3 985 1013 1014
3 985 1014 986
3 986 1014 1015
3 986 1015 987
3 987 1015 1016
3 987 1016 988
3 988 1016 1017
3 988 1017 989
3 989 1017 1018
3 989 1018 990
3 990 1018 1019
3 990 1019 991
3 991 1019 1020
3 991 1020 123
3 123 1020 122
3 32 33 992
3 992 33 1021
3 992 1021 993
3 993 1021 1022
3 993 1022 994
3 994 1022 1023
3 994 1023 995
3 995 1023 1024
3 995 1024 996
3 996 1024 1025
3 996 1025 997
3 997 1025 1026
3 997 1026 998
3 998 1026 1027
3 998 1027 999
3 999 1027 1028
3 999 1028 1000
3 1000 1028 1029
3 1000 1029 1001
3 1001 1029 1030
3 1001 1030 1002
3 1002 1030 1031
3 1002 1031 1003
3 1003 1031 1032
3 1003 1032 1004
3 1004 1032 1033
3 1004 1033 1005
3 1005 1033 1034
3 1005 1034 1006
3 1006 1034 1035
3 1006 1035 1007
3 1007 1035 1036
3 1007 1036 1008
3 1008 1036 1037
3 1008 1037 1009
3 1009 1037 1038
3 1009 1038 1010
3 1010 1038 1039
3 1010 1039 1011
3 1011 1039 1040
3 1011 1040 1012
3 1012 1040 1041
3 1012 1041 1013
3 1013 1041 1042
3 1013 1042 1014
3 1014 1042 1043
3 1014 1043 1015
3 1015 1043 1044
3 1015 1044 1016
3 1016 1044 1045
3 1016 1045 1017
3 1017 1045 1046
3 1017 1046 1018
3 1018 1046 1047
3 1018 1047 1019
3 1019 1047 1048
3 1019 1048 1020
3 1020 1048 1049
3 1020 1049 122
3 122 1049 121
3 33 34 1021
3 1021 34 1050
3 1021 1050 1022
3 1022 1050 1051
3 1022 1051 1023
3 1023 1051 1052
3 1023 1052 1024
3 1024 1052 1053
3 1024 1053 1025
3 1025 1053 1054
3 1025 1054 1026
3 1026 1054 1055
3 1026 1055 1027
3 1027 1055 1056
3 1027 1056 1028
3 1028 1056 1057
3 1028 1057 1029
3 1029 1057 1058
3 1029 1058 1030
3 1030 1058 1059
3 1030 1059 1031
3 1031 1059 1060
3 1031 1060 1032
3 1032 1060 1061
3 1032 1061 1033
3 1033 1061 1062
3 1033 1062 1034
3 1034 1062 1063
3 1034 1063 1035
3 1035 1063 1064
3 1035 1064 1036
3 1036 1064 1065
3 1036 1065 1037
3 1037 1065 1066
3 1037 1066 1038
3 1038 1066 1067
3 1038 1067 1039
3 1039 1067 1068
3 1039 1068 1040
3 1040 1068 1069
3 1040 1069 1041
3 1041 1069 1070
3 1041 1070 1042
3 1042 1070 1071
3 1042 1071 1043
3 1043 1071 1072
3 1043 1072 1044
3 1044 1072 1073
3 1044 1073 1045
3 1045 1073 1074
3 1045 1074 1046
3 1046 1074 1075
3 1046 1075 1047
3 1047 1075 1076
3 1047 1076 1048
3 1048 1076 1077
3 1048 1077 1049
3 1049 1077 1078
3 1049 1078 121
3 121 1078 120
3 34 35 1050
3 1050 35 1079
3 1050 1079 1051
3 1051 1079 1080
3 1051 1080 1052
3 1052 1080 1081
3 1052 1081 1053
3 1053 1081 1082
3 1053 1082 1054
3 1054 1082 1083
3 1054 1083 1055
3 1055 1083 1084
3 1055 1084 1056
3 1056 1084 1085
3 1056 1085 1057
3 1057 1085 1086
3 1057 1086 1058
3 1058 1086 1087
3 1058 1087 1059
3 1059 1087 1088
3 1059 1088 1060
3 1060 1088 1089
3 1060 1089 1061
3 1061 1089 1090
3 1061 1090 1062
3 1062 1090 1091
3 1062 1091 1063
3 1063 1091 1092
3 1063 1092 1064
3 1064 1092 1093
3 1064 1093 1065
3 1065 1093 1094
3 1065 1094 1066
3 1066 1094 1095
3 1066 1095 1067
3 1067 1095 1096
3 1067 1096 1068
3 1068 1096 1097
3 1068 1097 1069
3 1069 1097 1098
3 1069 1098 1070
3 1070 1098 1099
3 1070 1099 1071
3 1071 1099 1100
3 1071 1100 1072
3 1072 1100 1101
3 1072 1101 1073
3 1073 1101 1102
3 1073 1102 1074
3 1074 1102 1103
3 1074 1103 1075
3 1075 1103 1104
3 1075 1104 1076
3 1076 1104 1105
3 1076 1105 1077
3 1077 1105 1106
3 1077 1106 1078
3 1078 1106 1107
3 1078 1107 120
3 120 1107 119
3 35 36 1079
3 1079 36 1108
3 1079 1108 1080
3 1080 1108 1109
3 1080 1109 1081
3 1081 1109 1110
3 1081 1110 1082
3 1082 1110 1111
3 1082 1111 1083
3 1083 1111 1112
3 1083 1112 1084
3 1084 1112 1113
3 1084 1113 1085
3 1085 1113 1114
3 1085 1114 1086
3 1086 1114 1115
3 1086 1115 1087
3 1087 1115 1116
3 1087 1116 1088
3 1088 1116 1117
3 1088 1117 1089
3 1089 1117 1118
3 1089 1118 1090
3 1090 1118 1119
3 1090 1119 1091
3 1091 1119 1120
3 1091 1120 1092
3 1092 1120 1121
3 1092 1121 1093
3 1093 1121 1122
3 1093 1122 1094
3 1094 1122 1123
3 1094 1123 1095
3 1095 1123 1124
3 1095 1124 1096
3 1096 1124 1125
3 1096 1125 1097
3 1097 1125 1126
3 1097 1126 1098
3 1098 1126 1127
3 1098 1127 1099
3 1099 1127 1128
3 1099 1128 1100
3 1100 1128 1129
3 1100 1129 1101
3 1101 1129 1130
3 1101 1130 1102
3 1102 1130 1131
3 1102 1131 1103
3 1103 1131 1132
3 1103 1132 1104
3 1104 1132 1133
3 1104 1133 1105
3 1105 1133 1134
3 1105 1134 1106
3 1106 1134 1135
3 1106 1135 1107
3 1107 1135 1136
3 1107 1136 119
3 119 1136 118
3 36 37 1108
3 1108 37 1137
3 1108 1137 1109
3 1109 1137 1138
3 1109 1138 1110
3 1110 1138 1139
3 1110 1139 1111
3 1111 1139 1140
3 1111 1140 1112
3 1112 1140 1141
3 1112 1141 1113
3 1113 1141 1142
3 1113 1142 1114
3 1114 1142 1143
3 1114 1143 1115
3 1115 1143 1144
3 1115 1144 1116
3 1116 1144 1145
3 1116 1145 1117
3 1117 1145 1146
3 1117 1146 1118
3 1118 1146 1147
3 1118 1147 1119
3 1119 1147 1148
3 1119 1148 1120
3 1120 1148 1149
3 1120 1149 1121
3 1121 1149 1150
3 1121 1150 1122
3 1122 1150 1151
3 1122 1151 1123
3 1123 1151 1152
3 1123 1152 1124
3 1124 1152 1153
3 1124 1153 1125
3 1125 1153 1154
3 1125 1154 1126
3 1126 1154 1155
3 1126 1155 1127
3 1127 1155 1156
3 1127 1156 1128
3 1128 1156 1157
3 1128 1157 1129
3 1129 1157 1158
3 1129 1158 1130
3 1130 1158 1159
3 1130 1159 1131
3 1131 1159 1160
3 1131 1160 1132
3 1132 1160 1161
3 1132 1161 1133
3 1133 1161 1162
3 1133 1162 1134
3 1134 1162 1163
3 1134 1163 1135
3 1135 1163 1164
3 1135 1164 1136
3 1136 1164 1165
3 1136 1165 118
3 118 1165 117
3 37 38 1137
3 1137 38 1166
3 1137 1166 1138
3 1138 1166 1167
3 1138 1167 1139
3 1139 1167 1168
3 1139 1168 1140
3 1140 1168 1169
3 1140 1169 1141
3 1141 1169 1170
3 1141 1170 1142
3 1142 1170 1171
3 1142 1171 1143
3 1143 1171 1172
3 1143 1172 1144
3 1144 1172 1173
3 1144 1173 1145
3 1145 1173 1174
3 1145 1174 1146
3 1146 1174 1175
3 1146 1175 1147
3 1147 1175 1176
3 1147 1176 1148
3 1148 1176 1177
3 1148 1177 1149
3 1149 1177 1178
3 1149 1178 1150
3 1150 1178 1179
3 1150 1179 1151
3 1151 1179 1180
3 1151 1180 1152
3 1152 1180 1181
3 1152 1181 1153
3 1153 1181 1182
3 1153 1182 1154
3 1154 1182 1183
3 1154 1183 1155
3 1155 1183 1184
3 1155 1184 1156
3 1156 1184 1185
3 1156 1185 1157
3 1157 1185 1186
3 1157 1186 1158
3 1158 1186 1187
3 1158 1187 1159
3 1159 1187 1188
3 1159 1188 1160
3 1160 1188 1189
3 1160 1189 1161
3 1161 1189 1190
3 1161 1190 1162
3 1162 1190 1191
3 1162 1191 1163
3 1163 1191 1192
3 1163 1192 1164
3 1164 1192 1193
3 1164 1193 1165
3 1165 1193 1194
3 1165 1194 117
3 117 1194 116
3 38 39 1166
3 1166 39 1195
3 1166 1195 1167
3 1167 1195 1196
3 1167 1196 1168
3 1168 1196 1197
3 1168 1197 1169
3 1169 1197 1198
3 1169 1198 1170
3 1170 1198 1199
3 1170 1199 1171
3 1171 1199 1200
3 1171 1200 1172
3 1172 1200 1201
3 1172 1201 1173
3 1173 1201 1202
3 1173 1202 1174
3 1174 1202 1203
3 1174 1203 1175
3 1175 1203 1204
3 1175 1204 1176
3 1176 1204 1205
3 1176 1205 1177
3 1177 1205 1206
3 1177 1206 1178
3 1178 1206 1207
3 1178 1207 1179
3 1179 1207 1208
3 1179 1208 1180
3 1180 1208 1209
3 1180 1209 1181
3 1181 1209 1210
3 1181 1210 1182
3 1182 1210 1211
3 1182 1211 1183
3 1183 1211 1212
3 1183 1212 1184
3 1184 1212 1213
3 1184 1213 1185
3 1185 1213 1214
3 1185 1214 1186
3 1186 1214 1215
3 1186 1215 1187
3 1187 1215 1216
3 1187 1216 1188
3 1188 1216 1217
3 1188 1217 1189
3 1189 1217 1218
3 1189 1218 1190
3 1190 1218 1219
3 1190 1219 1191
3 1191 1219 1220
3 1191 1220 1192
3 1192 1220 1221
3 1192 1221 1193
3 1193 1221 1222
3 1193 1222 1194
3 1194 1222 1223
3 1194 1223 116
3 116 1223 115
3 39 40 1195
3 1195 40 1224
3 1195 1224 1196
3 1196 1224 1225
3 1196 1225 1197
3 1197 1225 1226
3 1197 1226 1198
3 1198 1226 1227
3 1198 1227 1199
3 1199 1227 1228
3 1199 1228 1200
3 1200 1228 1229
3 1200 1229 1201
3 1201 1229 1230
3 1201 1230 1202
3 1202 1230 1231
3 1202 1231 1203
3 1203 1231 1232
3 1203 1232 1204
3 1204 1232 1233
3 1204 1233 1205
3 1205 1233 1234
3 1205 1234 1206
3 1206 1234 1235
3 1206 1235 1207
3 1207 1235 1236
3 1207 1236 1208
3 1208 1236 1237
3 1208 1237 1209
3 1209 1237 1238
3 1209 1238 1210
3 1210 1238 1239
3 1210 1239 1211
3 1211 1239 1240
3 1211 1240 1212
3 1212 1240 1241
3 1212 1241 1213
3 1213 1241 1242
3 1213 1242 1214
3 1214 1242 1243
3 1214 1243 1215
3 1215 1243 1244
3 1215 1244 1216
3 1216 1244 1245
3 1216 1245 1217
3 1217 1245 1246
3 1217 1246 1218
3 1218 1246 1247
3 1218 1247 1219
3 1219 1247 1248
3 1219 1248 1220
3 1220 1248 1249
3 1220 1249 1221
3 1221 1249 1250
3 1221 1250 1222
3 1222 1250 1251
3 1222 1251 1223
3 1223 1251 1252
3 1223 1252 115
3 115 1252 114
3 40 41 1224
3 1224 41 1253
3 1224 1253 1225
3 1225 1253 1254
3 1225 1254 1226
3 1226 1254 1255
3 1226 1255 1227
3 1227 1255 1256
3 1227 1256 1228
3 1228 1256 1257
3 1228 1257 1229
3 1229 1257 1258
3 1229 1258 1230
3 1230 1258 1259
3 1230 1259 1231
3 1231 1259 1260
3 1231 1260 1232
3 1232 1260 1261
3 1232 1261 1233
3 1233 1261 1262
3 1233 1262 1234
3 1234 1262 1263
3 1234 1263 1235
3 1235 1263 1264
3 1235 1264 1236
3 1236 1264 1265
3 1236 1265 1237
3 1237 1265 1266
3 1237 1266 1238
3 1238 1266 1267
3 1238 1267 1239
3 1239 1267 1268
3 1239 1268 1240
3 1240 1268 1269
3 1240 1269 1241
3 1241 1269 1270
3 1241 1270 1242
3 1242 1270 1271
3 1242 1271 1243
3 1243 1271 1272
3 1243 1272 1244
3 1244 1272 1273
3 1244 1273 1245
3 1245 1273 1274
3 1245 1274 1246
3 1246 1274 1275
3 1246 1275 1247
3 1247 1275 1276
3 1247 1276 1248
3 1248 1276 1277
3 1248 1277 1249
3 1249 1277 1278
3 1249 1278 1250
3 1250 1278 1279
3 1250 1279 1251
3 1251 1279 1280
3 1251 1280 1252
3 1252 1280 1281
3 1252 1281 114
3 114 1281 113
3 41 42 1253
3 1253 42 1282
3 1253 1282 1254
3 1254 1282 1283
3 1254 1283 1255
3 1255 1283 1284
3 1255 1284 1256
3 1256 1284 1285
3 1256 1285 1257
3 1257 1285 1286
3 1257 1286 1258
3 1258 1286 1287
3 1258 1287 1259
3 1259 1287 1288
3 1259 1288 1260
3 1260 1288 1289
3 1260 1289 1261
3 1261 1289 1290
3 1261 1290 1262
3 1262 1290 1291
3 1262 1291 1263
3 1263 1291 1292
3 1263 1292 1264
3 1264 1292 1293
3 1264 1293 1265
3 1265 1293 1294
3 1265 1294 1266
3 1266 1294 1295
3 1266 1295 1267
3 1267 1295 1296
3 1267 1296 1268
3 1268 1296 1297
3 1268 1297 1269
3 1269 1297 1298
3 1269 1298 1270
3 1270 1298 1299
3 1270 1299 1271
3 1271 1299 1300
3 1271 1300 1272
3 1272 1300 1301
3 1272 1301 1273
3 1273 1301 1302
3 1273 1302 1274
3 1274 1302 1303
3 1274 1303 1275
3 1275 1303 1304
3 1275 1304 1276
3 1276 1304 1305
3 1276 1305 1277
3 1277 1305 1306
3 1277 1306 1278
3 1278 1306 1307
3 1278 1307 1279
3 1279 1307 1308
3 1279 1308 1280
3 1280 1308 1309
3 1280 1309 1281
3 1281 1309 1310
3 1281 1310 113
3 113 1310 112
3 42 43 1282
3 1282 43 1311
3 1282 1311 1283
3 1283 1311 1312
3 1283 1312 1284
3 1284 1312 1313
3 1284 1313 1285
3 1285 1313 1314
3 1285 1314 1286
3 1286 1314 1315
3 1286 1315 1287
3 1287 1315 1316
3 1287 1316 1288
3 1288 1316 1317
3 1288 1317 1289
3 1289 1317 1318
3 1289 1318 1290
3 1290 1318 1319
3 1290 1319 1291
3 1291 1319 1320
3 1291 1320 1292
3 1292 1320 1321
3 1292 1321 1293
3 1293 1321 1322
3 1293 1322 1294
3 1294 1322 1323
3 1294 1323 1295
3 1295 1323 1324
3 1295 1324 1296
3 1296 1324 1325
3 1296 1325 1297
3 1297 1325 1326
3 1297 1326 1298
3 1298 1326 1327
3 1298 1327 1299
3 1299 1327 1328
3 1299 1328 1300
3 1300 1328 1329
3 1300 1329 1301
3 1301 1329 1330
3 1301 1330 1302
3 1302 1330 1331
3 1302 1331 1303
3 1303 1331 1332
3 1303 1332 1304
3 1304 1332 1333
3 1304 1333 1305
3 1305 1333 1334
3 1305 1334 1306
3 1306 1334 1335
3 1306 1335 1307
3 1307 1335 1336
3 1307 1336 1308
3 1308 1336 1337
3 1308 1337 1309
3 1309 1337 1338
3 1309 1338 1310
3 1310 1338 1339
3 1310 1339 112
3 112 1339 111
3 43 44 1311
3 1311 44 1340
3 1311 1340 1312
3 1312 1340 1341
3 1312 1341 1313
3 1313 1341 1342
3 1313 1342 1314
3 1314 1342 1343
3 1314 1343 1315
3 1315 1343 1344
3 1315 1344 1316
3 1316 1344 1345
3 1316 1345 1317
3 1317 1345 1346
3 1317 1346 1318
3 1318 1346 1347
3 1318 1347 1319
3 1319 1347 1348
3 1319 1348 1320
3 1320 1348 1349
3 1320 1349 1321
3 1321 1349 1350
3 1321 1350 1322
3 1322 1350 1351
3 1322 1351 1323
3 1323 1351 1352
3 1323 1352 1324
3 1324 1352 1353
3 1324 1353 1325
3 1325 1353 1354
3 1325 1354 1326
3 1326 1354 1355
3 1326 1355 1327
3 1327 1355 1356
3 1327 1356 1328
3 1328 1356 1357
3 1328 1357 1329
3 1329 1357 1358
3 1329 1358 1330
3 1330 1358 1359
3 1330 1359 1331
3 1331 1359 1360
3 1331 1360 1332
3 1332 1360 1361
3 1332 1361 1333
3 1333 1361 1362
3 1333 1362 1334
3 1334 1362 1363
3 1334 1363 1335
3 1335 1363 1364
3 1335 1364 1336
3 1336 1364 1365
3 1336 1365 1337
3 1337 1365 1366
3 1337 1366 1338
3 1338 1366 1367
3 1338 1367 1339
3 1339 1367 1368
3 1339 1368 111
3 111 1368 110
3 44 45 1340
3 1340 45 1369
3 1340 1369 1341
3 1341 1369 1370
3 1341 1370 1342
3 1342 1370 1371
3 1342 1371 1343
3 1343 1371 1372
3 1343 1372 1344
3 1344 1372 1373
3 1344 1373 1345
3 1345 1373 1374
3 1345 1374 1346
3 1346 1374 1375
3 1346 1375 1347
3 1347 1375 1376
3 1347 1376 1348
3 1348 1376 1377
3 1348 1377 1349
3 1349 1377 1378
3 1349 1378 1350
3 1350 1378 1379
3 1350 1379 1351
3 1351 1379 1380
3 1351 1380 1352
3 1352 1380 1381
3 1352 1381 1353
3 1353 1381 1382
3 1353 1382 1354
3 1354 1382 1383
3 1354 1383 1355
3 1355 1383 1384
3 1355 1384 1356
3 1356 1384 1385
3 1356 1385 1357
3 1357 1385 1386
3 1357 1386 1358
3 1358 1386 1387
3 1358 1387 1359
3 1359 1387 1388
3 1359 1388 1360
3 1360 1388 1389
3 1360 1389 1361
3 1361 1389 1390
3 1361 1390 1362
3 1362 1390 1391
3 1362 1391 1363
3 1363 1391 1392
3 1363 1392 1364
3 1364 1392 1393
3 1364 1393 1365
3 1365 1393 1394
3 1365 1394 1366
3 1366 1394 1395
3 1366 1395 1367
3 1367 1395 1396
3 1367 1396 1368
3 1368 1396 1397
3 1368 1397 110
3 110 1397 109
3 45 46 1369
3 1369 46 1398
3 1369 1398 1370
3 1370 1398 1399
3 1370 1399 1371
3 1371 1399 1400
3 1371 1400 1372
3 1372 1400 1401
3 1372 1401 1373
3 1373 1401 1402
3 1373 1402 1374
3 1374 1402 1403
3 1374 1403 1375
3 1375 1403 1404
3 1375 1404 1376
3 1376 1404 1405
3 1376 1405 1377
3 1377 1405 1406
3 1377 1406 1378
3 1378 1406 1407
3 1378 1407 1379
3 1379 1407 1408
3 1379 1408 1380
3 1380 1408 1409
3 1380 1409 1381
3 1381 1409 1410
3 1381 1410 1382
3 1382 1410 1411
3 1382 1411 1383
3 1383 1411 1412
3 1383 1412 1384
3 1384 1412 1413
3 1384 1413 1385
3 1385 1413 1414
3 1385 1414 1386
3 1386 1414 1415
3 1386 1415 1387
3 1387 1415 1416
3 1387 1416 1388
3 1388 1416 1417
3 1388 1417 1389
3 1389 1417 1418
3 1389 1418 1390
3 1390 1418 1419
3 1390 1419 1391
3 1391 1419 1420
3 1391 1420 1392
3 1392 1420 1421
3 1392 1421 1393
3 1393 1421 1422
3 1393 1422 1394
3 1394 1422 1423
3 1394 1423 1395
3 1395 1423 1424
3 1395 1424 1396
3 1396 1424 1425
3 1396 1425 1397
3 1397 1425 1426
3 1397 1426 109
3 109 1426 108
3 46 47 1398
3 1398 47 1427
3 1398 1427 1399
3 1399 1427 1428
3 1399 1428 1400
3 1400 1428 1429
3 1400 1429 1401
3 1401 1429 1430
3 1401 1430 1402
3 1402 1430 1431
3 1402 1431 1403
3 1403 1431 1432
3 1403 1432 1404
3 1404 1432 1433
3 1404 1433 1405
3 1405 1433 1434
3 1405 1434 1406
3 1406 1434 1435
3 1406 1435 1407
3 1407 1435 1436
3 1407 1436 1408
3 1408 1436 1437
3 1408 1437 1409
3 1409 1437 1438
3 1409 1438 1410
3 1410 1438 1439
3 1410 1439 1411
3 1411 1439 1440
3 1411 1440 1412
3 1412 1440 1441
3 1412 1441 1413
3 1413 1441 1442
3 1413 1442 1414
3 1414 1442 1443
3 1414 1443 1415
3 1415 1443 1444
3 1415 1444 1416
3 1416 1444 1445
3 1416 1445 1417
3 1417 1445 1446
3 1417 1446 1418
3 1418 1446 1447
3 1418 1447 1419
3 1419 1447 1448
3 1419 1448 1420
3 1420 1448 1449
3 1420 1449 1421
3 1421 1449 1450
3 1421 1450 1422
3 1422 1450 1451
3 1422 1451 1423
3 1423 1451 1452
3 1423 1452 1424
3 1424 1452 1453
3 1424 1453 1425
3 1425 1453 1454
3 1425 1454 1426
3 1426 1454 1455
3 1426 1455 108
3 108 1455 107
3 47 48 1427
3 1427 48 1456
3 1427 1456 1428
3 1428 1456 1457
3 1428 1457 1429
3 1429 1457 1458
3 1429 1458 1430
3 1430 1458 1459
3 1430 1459 1431
3 1431 1459 1460
3 1431 1460 1432
3 1432 1460 1461
3 1432 1461 1433
3 1433 1461 1462
3 1433 1462 1434
3 1434 1462 1463
3 1434 1463 1435
3 1435 1463 1464
3 1435 1464 1436
3 1436 1464 1465
3 1436 1465 1437
3 1437 1465 1466
3 1437 1466 1438
3 1438 1466 1467
3 1438 1467 1439
3 1439 1467 1468
3 1439 1468 1440
3 1440 1468 1469
3 1440 1469 1441
3 1441 1469 1470
3 1441 1470 1442
3 1442 1470 1471
3 1442 1471 1443
3 1443 1471 1472
3 1443 1472 1444
3 1444 1472 1473
3 1444 1473 1445
3 1445 1473 1474
3 1445 1474 1446
3 1446 1474 1475
3 1446 1475 1447
3 1447 1475 1476
3 1447 1476 1448
3 1448 1476 1477
3 1448 1477 1449
3 1449 1477 1478
3 1449 1478 1450
3 1450 1478 1479
3 1450 1479 1451
3 1451 1479 1480
3 1451 1480 1452
3 1452 1480 1481
3 1452 1481 1453
3 1453 1481 1482
3 1453 1482 1454
3 1454 1482 1483
3 1454 1483 1455
3 1455 1483 1484
3 1455 1484 107
3 107 1484 106
3 48 49 1456
3 1456 49 1485
3 1456 1485 1457
3 1457 1485 1486
3 1457 1486 1458
3 1458 1486 1487
3 1458 1487 1459
3 1459 1487 1488
3 1459 1488 1460
3 1460 1488 1489
3 1460 1489 1461
3 1461 1489 1490
3 1461 1490 1462
3 1462 1490 1491
3 1462 1491 1463
3 1463 1491 1492
3 1463 1492 1464
3 1464 1492 1493
3 1464 1493 1465
3 1465 1493 1494
3 1465 1494 1466
3 1466 1494 1495
3 1466 1495 1467
3 1467 1495 1496
3 1467 1496 1468
3 1468 1496 1497
3 1468 1497 1469
3 1469 1497 1498
3 1469 1498 1470
3 1470 1498 1499
3 1470 1499 1471
3 1471 1499 1500
3 1471 1500 1472
3 1472 1500 1501
3 1472 1501 1473
3 1473 1501 1502
3 1473 1502 1474
3 1474 1502 1503
3 1474 1503 1475
3 1475 1503 1504
3 1475 1504 1476
3 1476 1504 1505
3 1476 1505 1477
3 1477 1505 1506
3 1477 1506 1478
3 1478 1506 1507
3 1478 1507 1479
3 1479 1507 1508
3 1479 1508 1480
3 1480 1508 1509
3 1480 1509 1481
3 1481 1509 1510
3 1481 1510 1482
3 1482 1510 1511
3 1482 1511 1483
3 1483 1511 1512
3 1483 1512 1484
3 1484 1512 1513
3 1484 1513 106
3 106 1513 105
3 49 50 1485
3 1485 50 1514
3 1485 1514 1486
3 1486 1514 1515
3 1486 1515 1487
3 1487 1515 1516
3 1487 1516 1488
3 1488 1516 1517
3 1488 1517 1489
3 1489 1517 1518
3 1489 1518 1490
3 1490 1518 1519
3 1490 1519 1491
3 1491 1519 1520
3 1491 1520 1492
3 1492 1520 1521
3 1492 1521 1493
3 1493 1521 1522
3 1493 1522 1494
3 1494 1522 1523
3 1494 1523 1495
3 1495 1523 1524
3 1495 1524 1496
3 1496 1524 1525
3 1496 1525 1497
3 1497 1525 1526
3 1497 1526 1498
3 1498 1526 1527
3 1498 1527 1499
3 1499 1527 1528
3 1499 1528 1500
3 1500 1528 1529
3 1500 1529 1501
3 1501 1529 1530
3 1501 1530 1502
3 1502 1530 1531
3 1502 1531 1503
3 1503 1531 1532
3 1503 1532 1504
3 1504 1532 1533
3 1504 1533 1505
3 1505 1533 1534
3 1505 1534 1506
3 1506 1534 1535
3 1506 1535 1507
3 1507 1535 1536
3 1507 1536 1508
3 1508 1536 1537
3 1508 1537 1509
3 1509 1537 1538
3 1509 1538 1510
3 1510 1538 1539
3 1510 1539 1511
3 1511 1539 1540
3 1511 1540 1512
3 1512 1540 1541
3 1512 1541 1513
3 1513 1541 1542
3 1513 1542 105
3 105 1542 104
3 50 51 1514
3 1514 51 1543
3 1514 1543 1515
3 1515 1543 1544
3 1515 1544 1516
3 1516 1544 1545
3 1516 1545 1517
3 1517 1545 1546
3 1517 1546 1518
3 1518 1546 1547
3 1518 1547 1519
3 1519 1547 1548
3 1519 1548 1520
3 1520 1548 1549
3 1520 1549 1521
3 1521 1549 1550
3 1521 1550 1522
3 1522 1550 1551
3 1522 1551 1523
3 1523 1551 1552
3 1523 1552 1524
3 1524 1552 1553
3 1524 1553 1525
3 1525 1553 1554
3 1525 1554 1526
3 1526 1554 1555
3 1526 1555 1527
3 1527 1555 1556
3 1527 1556 1528
3 1528 1556 1557
3 1528 1557 1529
3 1529 1557 1558
3 1529 1558 1530
3 1530 1558 1559
3 1530 1559 1531
3 1531 1559 1560
3 1531 1560 1532
3 1532 1560 1561
3 1532 1561 1533
3 1533 1561 1562
3 1533 1562 1534
3 1534 1562 1563
3 1534 1563 1535
3 1535 1563 1564
3 1535 1564 1536
3 1536 1564 1565
3 1536 1565 1537
3 1537 1565 1566
3 1537 1566 1538
3 1538 1566 1567
3 1538 1567 1539
3 1539 1567 1568
3 1539 1568 1540
3 1540 1568 1569
3 1540 1569 1541
3 1541 1569 1570
3 1541 1570 1542
3 1542 1570 1571
3 1542 1571 104
3 104 1571 103
3 51 52 1543
3 1543 52 1572
3 1543 1572 1544
3 1544 1572 1573
3 1544 1573 1545
3 1545 1573 1574
3 1545 1574 1546
3 1546 1574 1575
3 1546 1575 1547
3 1547 1575 1576
3 1547 1576 1548
3 1548 1576 1577
3 1548 1577 1549
3 1549 1577 1578
3 1549 1578 1550
3 1550 1578 1579
3 1550 1579 1551
3 1551 1579 1580
3 1551 1580 1552
3 1552 1580 1581
3 1552 1581 1553
3 1553 1581 1582
3 1553 1582 1554
3 1554 1582 1583
3 1554 1583 1555
3 1555 1583 1584
3 1555 1584 1556
3 1556 1584 1585
3 1556 1585 1557
3 1557 1585 1586
3 1557 1586 1558
3 1558 1586 1587
3 1558 1587 1559
3 1559 1587 1588
3 1559 1588 1560
3 1560 1588 1589
3 1560 1589 1561
3 1561 1589 1590
3 1561 1590 1562
3 1562 1590 1591
3 1562 1591 1563
3 1563 1591 1592
3 1563 1592 1564
3 1564 1592 1593
3 1564 1593 1565
3 1565 1593 1594
3 1565 1594 1566
3 1566 1594 1595
3 1566 1595 1567
3 1567 1595 1596
3 1567 1596 1568
3 1568 1596 1597
3 1568 1597 1569
3 1569 1597 1598
3 1569 1598 1570
3 1570 1598 1599
3 1570 1599 1571
3 1571 1599 1600
3 1571 1600 103
3 103 1600 102
3 52 53 1572
3 1572 53 1601
3 1572 1601 1573
3 1573 1601 1602
3 1573 1602 1574
3 1574 1602 1603
3 1574 1603 1575
3 1575 1603 1604
3 1575 1604 1576
3 1576 1604 1605
3 1576 1605 1577
3 1577 1605 1606
3 1577 1606 1578
3 1578 1606 1607
3 1578 1607 1579
3 1579 1607 1608
3 1579 1608 1580
3 1580 1608 1609
3 1580 1609 1581
3 1581 1609 1610
3 1581 1610 1582
3 1582 1610 1611
3 1582 1611 1583
3 1583 1611 1612
3 1583 1612 1584
3 1584 1612 1613
3 1584 1613 1585
3 1585 1613 1614
3 1585 1614 1586
3 1586 1614 1615
3 1586 1615 1587
3 1587 1615 1616
3 1587 1616 1588
3 1588 1616 1617
3 1588 1617 1589
3 1589 1617 1618
3 1589 1618 1590
3 1590 1618 1619
3 1590 1619 1591
3 1591 1619 1620
3 1591 1620 1592
3 1592 1620 1621
3 1592 1621 1593
3 1593 1621 1622
3 1593 1622 1594
3 1594 1622 1623
3 1594 1623 1595
3 1595 1623 1624
3 1595 1624 1596
3 1596 1624 1625
3 1596 1625 1597
3 1597 1625 1626
3 1597 1626 1598
3 1598 1626 1627
3 1598 1627 1599
3 1599 1627 1628
3 1599 1628 1600
3 1600 1628 1629
3 1600 1629 102
3 102 1629 101
3 53 54 1601
3 1601 54 1630
3 1601 1630 1602
3 1602 1630 1631
3 1602 1631 1603
3 1603 1631 1632
3 1603 1632 1604
3 1604 1632 1633
3 1604 1633 1605
3 1605 1633 1634
3 1605 1634 1606
3 1606 1634 1635
3 1606 1635 1607
3 1607 1635 1636
3 1607 1636 1608
3 1608 1636 1637
3 1608 1637 1609
3 1609 1637 1638
3 1609 1638 1610
3 1610 1638 1639
3 1610 1639 1611
3 1611 1639 1640
3 1611 1640 1612
3 1612 1640 1641
3 1612 1641 1613
3 1613 1641 1642
3 1613 1642 1614
3 1614 1642 1643
3 1614 1643 1615
3 1615 1643 1644
3 1615 1644 1616
3 1616 1644 1645
3 1616 1645 1617
3 1617 1645 1646
3 1617 1646 1618
3 1618 1646 1647
3 1618 1647 1619
3 1619 1647 1648
3 1619 1648 1620
3 1620 1648 1649
3 1620 1649 1621
3 1621 1649 1650
3 1621 1650 1622
3 1622 1650 1651
3 1622 1651 1623
3 1623 1651 1652
3 1623 1652 1624
3 1624 1652 1653
3 1624 1653 1625
3 1625 1653 1654
3 1625 1654 1626
3 1626 1654 1655
3 1626 1655 1627
3 1627 1655 1656
3 1627 1656 1628
3 1628 1656 1657
3 1628 1657 1629
3 1629 1657 1658
3 1629 1658 101
3 101 1658 100
3 54 55 1630
3 1630 55 1659
3 1630 1659 1631
3 1631 1659 1660
3 1631 1660 1632
3 1632 1660 1661
3 1632 1661 1633
3 1633 1661 1662
3 1633 1662 1634
3 1634 1662 1663
3 1634 1663 1635
3 1635 1663 1664
3 1635 1664 1636
3 1636 1664 1665
3 1636 1665 1637
3 1637 1665 1666
3 1637 1666 1638
3 1638 1666 1667
3 1638 1667 1639
3 1639 1667 1668
3 1639 1668 1640
3 1640 1668 1669
3 1640 1669 1641
3 1641 1669 1670
3 1641 1670 1642
3 1642 1670 1671
3 1642 1671 1643
3 1643 1671 1672
3 1643 1672 1644
3 1644 1672 1673
3 1644 1673 1645
3 1645 1673 1674
3 1645 1674 1646
3 1646 1674 1675
3 1646 1675 1647
3 1647 1675 1676
3 1647 1676 1648
3 1648 1676 1677
3 1648 1677 1649
3 1649 1677 1678
3 1649 1678 1650
3 1650 1678 1679
3 1650 1679 1651
3 1651 1679 1680
3 1651 1680 1652
3 1652 1680 1681
3 1652 1681 1653
3 1653 1681 1682
3 1653 1682 1654
3 1654 1682 1683
3 1654 1683 1655
3 1655 1683 1684
3 1655 1684 1656
3 1656 1684 1685
3 1656 1685 1657
3 1657 1685 1686
3 1657 1686 1658
3 1658 1686 1687
3 1658 1687 100
3 100 1687 99
3 55 56 1659
3 1659 56 1688
3 1659 1688 1660
3 1660 1688 1689
3 1660 1689 1661
3 1661 1689 1690
3 1661 1690 1662
3 1662 1690 1691
3 1662 1691 1663
3 1663 1691 1692
3 1663 1692 1664
3 1664 1692 1693
3 1664 1693 1665
3 1665 1693 1694
3 1665 1694 1666
3 1666 1694 1695
3 1666 1695 1667
3 1667 1695 1696
3 1667 1696 1668
3 1668 1696 1697
3 1668 1697 1669
3 1669 1697 1698
3 1669 1698 1670
3 1670 1698 1699
3 1670 1699 1671
3 1671 1699 1700
3 1671 1700 1672
3 1672 1700 1701
3 1672 1701 1673
3 1673 1701 1702
3 1673 1702 1674
3 1674 1702 1703
3 1674 1703 1675
3 1675 1703 1704
3 1675 1704 1676
3 1676 1704 1705
3 1676 1705 1677
3 1677 1705 1706
3 1677 1706 1678
3 1678 1706 1707
3 1678 1707 1679
3 1679 1707 1708
3 1679 1708 1680
3 1680 1708 1709
3 1680 1709 1681
3 1681 1709 1710
3 1681 1710 1682
3 1682 1710 1711
3 1682 1711 1683
3 1683 1711 1712
3 1683 1712 1684
3 1684 1712 1713
3 1684 1713 1685
3 1685 1713 1714
3 1685 1714 1686
3 1686 1714 1715
3 1686 1715 1687
3 1687 1715 1716
3 1687 1716 99
3 99 1716 98
3 56 57 1688
3 1688 57 1717
3 1688 1717 1689
3 1689 1717 1718
3 1689 1718 1690
3 1690 1718 1719
3 1690 1719 1691
3 1691 1719 1720
3 1691 1720 1692
3 1692 1720 1721
3 1692 1721 1693
3 1693 1721 1722
3 1693 1722 1694
3 1694 1722 1723
3 1694 1723 1695
3 1695 1723 1724
3 1695 1724 1696
3 1696 1724 1725
3 1696 1725 1697
3 1697 1725 1726
3 1697 1726 1698
3 1698 1726 1727
3 1698 1727 1699
3 1699 1727 1728
3 1699 1728 1700
3 1700 1728 1729
3 1700 1729 1701
3 1701 1729 1730
3 1701 1730 1702
3 1702 1730 1731
3 1702 1731 1703
3 1703 1731 1732
3 1703 1732 1704
3 1704 1732 1733
3 1704 1733 1705
3 1705 1733 1734
3 1705 1734 1706
3 1706 1734 1735
3 1706 1735 1707
3 1707 1735 1736
3 1707 1736 1708
3 1708 1736 1737
3 1708 1737 1709
3 1709 1737 1738
3 1709 1738 1710
3 1710 1738 1739
3 1710 1739 1711
3 1711 1739 1740
3 1711 1740 1712
3 1712 1740 1741
3 1712 1741 1713
3 1713 1741 1742
3 1713 1742 1714
3 1714 1742 1743
3 1714 1743 1715
3 1715 1743 1744
3 1715 1744 1716
3 1716 1744 1745
3 1716 1745 98
3 98 1745 97
3 57 58 1717
3 1717 58 1746
3 1717 1746 1718
3 1718 1746 1747
3 1718 1747 1719
3 1719 1747 1748
3 1719 1748 1720
3 1720 1748 1749
3 1720 1749 1721
3 1721 1749 1750
3 1721 1750 1722
3 1722 1750 1751
3 1722 1751 1723
3 1723 1751 1752
3 1723 1752 1724
3 1724 1752 1753
3 1724 1753 1725
3 1725 1753 1754
3 1725 1754 1726
3 1726 1754 1755
3 1726 1755 1727
3 1727 1755 1756
3 1727 1756 1728
3 1728 1756 1757
3 1728 1757 1729
3 1729 1757 1758
3 1729 1758 1730
3 1730 1758 1759
3 1730 1759 1731
3 1731 1759 1760
3 1731 1760 1732
3 1732 1760 1761
3 1732 1761 1733
3 1733 1761 1762
3 1733 1762 1734
3 1734 1762 1763
3 1734 1763 1735
3 1735 1763 1764
3 1735 1764 1736
3 1736 1764 1765
3 1736 1765 1737
3 1737 1765 1766
3 1737 1766 1738
3 1738 1766 1767
3 1738 1767 1739
3 1739 1767 1768
3 1739 1768 1740
3 1740 1768 1769
3 1740 1769 1741
3 1741 1769 1770
3 1741 1770 1742
3 1742 1770 1771
3 1742 1771 1743
3 1743 1771 1772
3 1743 1772 1744
3 1744 1772 1773
3 1744 1773 1745
3 1745 1773 1774
3 1745 1774 97
3 97 1774 96
3 58 59 1746
3 1746 59 1775
3 1746 1775 1747
3 1747 1775 1776
3 1747 1776 1748
3 1748 1776 1777
3 1748 1777 1749
3 1749 1777 1778
3 1749 1778 1750
3 1750 1778 1779
3 1750 1779 1751
3 1751 1779 1780
3 1751 1780 1752
3 1752 1780 1781
3 1752 1781 1753
3 1753 1781 1782
3 1753 1782 1754
3 1754 1782 1783
3 1754 1783 1755
3 1755 1783 1784
3 1755 1784 1756
3 1756 1784 1785
3 1756 1785 1757
3 1757 1785 1786
3 1757 1786 1758
3 1758 1786 1787
3 1758 1787 1759
3 1759 1787 1788
3 1759 1788 1760
3 1760 1788 1789
3 1760 1789 1761
3 1761 1789 1790
3 1761 1790 1762
3 1762 1790 1791
3 1762 1791 1763
3 1763 1791 1792
3 1763 1792 1764
3 1764 1792 1793
3 1764 1793 1765
3 1765 1793 1794
3 1765 1794 1766
3 1766 1794 1795
3 1766 1795 1767
3 1767 1795 1796
3 1767 1796 1768
3 1768 1796 1797
3 1768 1797 1769
3 1769 1797 1798
3 1769 1798 1770
3 1770 1798 1799
3 1770 1799 1771
3 1771 1799 1800
3 1771 1800 1772
3 1772 1800 1801
3 1772 1801 1773
3 1773 1801 1802
3 1773 1802 1774
3 1774 1802 1803
3 1774 1803 96
3 96 1803 95
3 59 60 1775
3 1775 60 1804
3 1775 1804 1776
3 1776 1804 1805
3 1776 1805 1777
3 1777 1805 1806
3 1777 1806 1778
3 1778 1806 1807
3 1778 1807 1779
3 1779 1807 1808
3 1779 1808 1780
3 1780 1808 1809
3 1780 1809 1781
3 1781 1809 1810
3 1781 1810 1782
3 1782 1810 1811
3 1782 1811 1783
3 1783 1811 1812
3 1783 1812 1784
3 1784 1812 1813
3 1784 1813 1785
3 1785 1813 1814
3 1785 1814 1786
3 1786 1814 1815
3 1786 1815 1787
3 1787 1815 1816
3 1787 1816 1788
3 1788 1816 1817
3 1788 1817 1789
3 1789 1817 1818
3 1789 1818 1790
3 1790 1818 1819
3 1790 1819 1791
3 1791 1819 1820
3 1791 1820 1792
3 1792 1820 1821
3 1792 1821 1793
3 1793 1821 1822
3 1793 1822 1794
3 1794 1822 1823
3 1794 1823 1795
3 1795 1823 1824
3 1795 1824 1796
3 1796 1824 1825
3 1796 1825 1797
3 1797 1825 1826
3 1797 1826 1798
3 1798 1826 1827
3 1798 1827 1799
3 1799 1827 1828
3 1799 1828 1800
3 1800 1828 1829
3 1800 1829 1801
3 1801 1829 1830
3 1801 1830 1802
3 1802 1830 1831
3 1802 1831 1803
3 1803 1831 1832
3 1803 1832 95
3 95 1832 94
3 60 61 1804
3 1804 61 1833
3 1804 1833 1805
3 1805 1833 1834
3 1805 1834 1806
3 1806 1834 1835
3 1806 1835 1807
3 1807 1835 1836
3 1807 1836 1808
3 1808 1836 1837
3 1808 1837 1809
3 1809 1837 1838
3 1809 1838 1810
3 1810 1838 1839
3 1810 1839 1811
3 1811 1839 1840
3 1811 1840 1812
3 1812 1840 1841
3 1812 1841 1813
3 1813 1841 1842
3 1813 1842 1814
3 1814 1842 1843
3 1814 1843 1815
3 1815 1843 1844
3 1815 1844 1816
3 1816 1844 1845
3 1816 1845 1817
3 1817 1845 1846
3 1817 1846 1818
3 1818 1846 1847
3 1818 1847 1819
3 1819 1847 1848
3 1819 1848 1820
3 1820 1848 1849
3 1820 1849 1821
3 1821 1849 1850
3 1821 1850 1822
3 1822 1850 1851
3 1822 1851 1823
3 1823 1851 1852
3 1823 1852 1824
3 1824 1852 1853
3 1824 1853 1825
3 1825 1853 1854
3 1825 1854 1826
3 1826 1854 1855
3 1826 1855 1827
3 1827 1855 1856
3 1827 1856 1828
3 1828 1856 1857
3 1828 1857 1829
3 1829 1857 1858
3 1829 1858 1830
3 1830 1858 1859
3 1830 1859 1831
3 1831 1859 1860
3 1831 1860 1832
3 1832 1860 1861
3 1832 1861 94
3 94 1861 93
3 61 62 1833
3 1833 62 1862
3 1833 1862 1834
3 1834 1862 1863
3 1834 1863 1835
3 1835 1863 1864
3 1835 1864 1836
3 1836 1864 1865
3 1836 1865 1837
3 1837 1865 1866
3 1837 1866 1838
3 1838 1866 1867
3 1838 1867 1839
3 1839 1867 1868
3 1839 1868 1840
3 1840 1868 1869
3 1840 1869 1841
3 1841 1869 1870
3 1841 1870 1842
3 1842 1870 1871
3 1842 1871 1843
3 1843 1871 1872
3 1843 1872 1844
3 1844 1872 1873
3 1844 1873 1845
3 1845 1873 1874
3 1845 1874 1846
3 1846 1874 1875
3 1846 1875 1847
3 1847 1875 1876
3 1847 1876 1848
3 1848 1876 1877
3 1848 1877 1849
3 1849 1877 1878
3 1849 1878 1850
3 1850 1878 1879
3 1850 1879 1851
3 1851 1879 1880
3 1851 1880 1852
3 1852 1880 1881
3 1852 1881 1853
3 1853 1881 1882
3 1853 1882 1854
3 1854 1882 1883
3 1854 1883 1855
3 1855 1883 1884
3 1855 1884 1856
3 1856 1884 1885
3 1856 1885 1857
3 1857 1885 1886
3 1857 1886 1858
3 1858 1886 1887
3 1858 1887 1859
3 1859 1887 1888
3 1859 1888 1860
3 1860 1888 1889
3 1860 1889 1861
3 1861 1889 1890
3 1861 1890 93
3 93 1890 92
3 62 1 1862
3 1862 1 63
3 1862 63 1863
3 1863 63 64
3 1863 64 1864
3 1864 64 65
3 1864 65 1865
3 1865 65 66
3 1865 66 1866
3 1866 66 67
3 1866 67 1867
3 1867 67 68
3 1867 68 1868
3 1868 68 69
3 1868 69 1869
3 1869 69 70
3 1869 70 1870
3 1870 70 71
3 1870 71 1871
3 1871 71 72
3 1871 72 1872
3 1872 72 73
3 1872 73 1873
3 1873 73 74
3 1873 74 1874
3 1874 74 75
3 1874 75 1875
3 1875 75 76
3 1875 76 1876
3 1876 76 77
3 1876 77 1877
3 1877 77 78
3 1877 78 1878
3 1878 78 79
3 1878 79 1879
3 1879 79 80
3 1879 80 1880
3 1880 80 81
3 1880 81 1881
3 1881 81 82
3 1881 82 1882
3 1882 82 83
3 1882 83 1883
3 1883 83 84
3 1883 84 1884
3 1884 84 85
3 1884 85 1885
3 1885 85 86
3 1885 86 1886
3 1886 86 87
3 1886 87 1887
3 1887 87 88
3 1887 88 1888
3 1888 88 89
3 1888 89 1889
3 1889 89 90
3 1889 90 1890
3 1890 90 91
3 1890 91 92
3 92 91 2
POINT_DATA 1891
VECTORS U float
0.000000 -0.000000 0.000000
-1.870077 6.739358 0.000000
-5.667667 6.769574 0.000000
-0.000042 0.000053 0.000000
0.000165 0.087372 0.000000
0.000636 0.172533 0.000000
0.001873 0.252771 0.000000
0.003986 0.327943 0.000000
0.006736 0.399050 0.000000
0.011814 0.466124 0.000000
0.020527 0.530214 0.000000
0.033033 0.592375 0.000000
0.049386 0.653809 0.000000
0.069198 0.715545 0.000000
0.091951 0.778811 0.000000
0.116827 0.844679 0.000000
0.143082 0.913997 0.000000
0.169869 0.987515 0.000000
0.196423 1.065677 0.000000
0.221952 1.148741 0.000000
0.245738 1.236805 0.000000
0.267183 1.329886 0.000000
0.285739 1.427909 0.000000
0.300955 1.530701 0.000000
0.312513 1.638090 0.000000
0.320115 1.749712 0.000000
0.323563 1.865344 0.000000
0.322749 1.984610 0.000000
0.317539 2.107233 0.000000
0.307964 2.232882 0.000000
0.293996 2.361275 0.000000
0.275713 2.492033 0.000000
0.253160 2.624916 0.000000
0.226483 2.759640 0.000000
0.195760 2.895945 0.000000
0.161126 3.033568 0.000000
0.122711 3.172294 0.000000
0.080666 3.311900 0.000000
0.035136 3.452196 0.000000
-0.013728 3.592982 0.000000
-0.065795 3.734073 0.000000
-0.120921 3.875308 0.000000
-0.178958 4.016550 0.000000
-0.239757 4.157584 0.000000
-0.303191 4.298316 0.000000
-0.369141 4.438616 0.000000
-0.437466 4.578320 0.000000
-0.508053 4.717304 0.000000
-0.580767 4.855453 0.000000
-0.655497 4.992622 0.000000
-0.732167 5.128714 0.000000
-0.810618 5.263635 0.000000
-0.890776 5.397172 0.000000
-0.972639 5.529304 0.000000
-1.055917 5.659798 0.000000
-1.140661 5.788603 0.000000
-1.226879 5.915669 0.000000
-1.314339 6.040631 0.000000
-1.403044 6.163284 0.000000
-1.493106 6.283776 0.000000
-1.584178 6.401891 0.000000
-1.676619 6.517133 0.000000
-1.771493 6.629461 0.000000
-1.981688 6.731333 0.000000
-2.086901 6.727605 0.000000
-2.188949 6.725955 0.000000
-2.290055 6.725981 0.000000
-2.391146 6.727892 0.000000
-2.492513 6.731459 0.000000
-2.594262 6.736001 0.000000
-2.696965 6.741309 0.000000
-2.801164 6.747377 0.000000
-2.906317 6.754080 0.000000
-3.013064 6.761284 0.000000
-3.121670 6.768745 0.000000
-3.232260 6.776374 0.000000
-3.344640 6.784116 0.000000
-3.459285 6.791751 0.000000
-3.576523 6.799287 0.000000
-3.696147 6.806495 0.000000
-3.818433 6.813303 0.000000
-3.943809 6.819457 0.000000
-4.072332 6.824968 0.000000
-4.203974 6.829751 0.000000
-4.339777 6.833529 0.000000
-4.479511 6.836049 0.000000
-4.623873 6.836911 0.000000
-4.773258 6.836122 0.000000
-4.928680 6.833379 0.000000
-5.092180 6.828168 0.000000
-5.265718 6.819509 0.000000
-5.453611 6.803329 0.000000
-5.563448 6.603525 0.000000
-5.469564 6.453885 0.000000
-5.380753 6.313083 0.000000
-5.295128 6.176838 0.000000
-5.212052 6.043108 0.000000
-5.130945 5.911129 0.000000
-5.051018 5.780569 0.000000
-4.971589 5.651168 0.000000
-4.892298 5.522093 0.000000
-4.813505 5.393622 0.000000
-4.734875 5.265497 0.000000
-4.656087 5.137287 0.000000
-4.576904 5.009004 0.000000
-4.497300 4.880573 0.000000
-4.417284 4.751999 0.000000
-4.336562 4.623305 0.000000
-4.255073 4.494331 0.000000
-4.172822 4.365296 0.000000
-4.089662 4.236069 0.000000
-4.005579 4.106742 0.000000
-3.920560 3.977507 0.000000
-3.834480 3.848282 0.000000
-3.747401 3.719226 0.000000
-3.659335 3.590530 0.000000
-3.570202 3.462122 0.000000
-3.480104 3.334214 0.000000
-3.389031 3.207033 0.000000
-3.296960 3.080523 0.000000
-3.204035 2.954863 0.000000
-3.110251 2.830295 0.000000
-3.015577 2.706816 0.000000
-2.920182 2.584617 0.000000
-2.824098 2.463849 0.000000
-2.727326 2.344621 0.000000
-2.629950 2.227086 0.000000
-2.532034 2.111360 0.000000
-2.433637 1.997608 0.000000
-2.334811 1.885990 0.000000
-2.235593 1.776570 0.000000
-2.136026 1.669453 0.000000
-2.036132 1.564916 0.000000
-1.935978 1.463009 0.000000
-1.835569 1.363805 0.000000
-1.734910 1.267662 0.000000
-1.634065 1.174341 0.000000
-1.532847 1.084344 0.000000
-1.431298 0.997519 0.000000
-1.329496 0.913844 0.000000
-1.226839 0.834098 0.000000
-1.123725 0.757144 0.000000
-1.019512 0.684939 0.000000
-0.913520 0.616068 0.000000
-0.807083 0.550810 0.000000
-0.695344 0.490672 0.000000
-0.578481 0.433035 0.000000
-0.455398 0.384108 0.000000
-0.307932 0.329900 0.000000
-0.147879 0.247255 0.000000
-0.032395 0.125944 0.000000
0.000004 -0.000004 0.000000
0.000008 -0.000006 0.000000
0.000003 -0.000003 0.000000
0.000003 0.000002 0.000000
0.000005 0.000002 0.000000
0.000003 -0.000003 0.000000
0.000001 -0.000002 0.000000
0.000001 0.000001 0.000000
0.000000 -0.000000 0.000000
-0.000000 -0.000002 0.000000
0.000001 -0.000000 0.000000
0.000000 0.000002 0.000000
-0.000001 -0.000000 0.000000
0.000000 -0.000001 0.000000
0.000001 0.000001 0.000000
0.000000 0.000001 0.000000
-0.000000 0.000000 0.000000
0.000001 0.000000 0.000000
0.000001 0.000001 0.000000
0.000000 0.000001 0.000000
0.000001 0.000000 0.000000
0.000001 0.000001 0.000000
0.000000 0.000001 0.000000
0.000000 0.000001 0.000000
0.000000 0.000001 0.000000
0.000000 0.000001 0.000000
-0.000000 0.000001 0.000000
-0.000000 0.000000 0.000000
-0.000000 0.000000 0.000000
0.000173 0.087095 0.000000
0.000200 0.086755 0.000000
0.000287 0.086286 0.000000
0.000502 0.085525 0.000000
0.000774 0.084255 0.000000
0.001034 0.082408 0.000000
0.001404 0.079877 0.000000
0.001914 0.076429 0.000000
0.002351 0.071997 0.000000
0.002683 0.066743 0.000000
0.003136 0.060694 0.000000
0.003596 0.053735 0.000000
0.003728 0.046121 0.000000
0.003748 0.038322 0.000000
0.004055 0.030271 0.000000
0.004255 0.021691 0.000000
0.003900 0.013144 0.000000
0.003655 0.005294 0.000000
0.004049 -0.002545 0.000000
0.004001 -0.010904 0.000000
0.002881 -0.018105 0.000000
0.002178 -0.023063 0.000000
0.002046 -0.027251 0.000000
-0.000317 -0.029314 0.000000
-0.005219 -0.023606 0.000000
-0.008787 -0.009297 0.000000
-0.011705 0.010643 0.000000
-0.017565 0.040206 0.000000
-0.019127 0.077152 0.000000
0.000781 0.171730 0.000000
0.001048 0.170737 0.000000
0.001639 0.169453 0.000000
0.002612 0.167499 0.000000
0.003738 0.164398 0.000000
0.005147 0.159835 0.000000
0.006830 0.153678 0.000000
0.008479 0.146006 0.000000
0.009965 0.136720 0.000000
0.011427 0.125830 0.000000
0.012876 0.113739 0.000000
0.013898 0.100648 0.000000
0.014331 0.086535 0.000000
0.014775 0.071845 0.000000
0.015448 0.057112 0.000000
0.015404 0.042208 0.000000
0.014415 0.027148 0.000000
0.014083 0.012838 0.000000
0.014557 -0.000384 0.000000
0.012896 -0.012976 0.000000
0.009082 -0.023835 0.000000
0.006740 -0.030880 0.000000
0.003361 -0.033590 0.000000
-0.008091 -0.030677 0.000000
-0.022591 -0.017973 0.000000
-0.031812 0.004675 0.000000
-0.046098 0.037813 0.000000
-0.059725 0.082535 0.000000
-0.075095 0.143023 0.000000
0.002301 0.251180 0.000000
0.003082 0.249461 0.000000
0.004858 0.247204 0.000000
0.007409 0.243488 0.000000
0.010446 0.237781 0.000000
0.013771 0.230000 0.000000
0.017016 0.220179 0.000000
0.020294 0.208333 0.000000
0.023385 0.194443 0.000000
0.025912 0.178932 0.000000
0.028061 0.162255 0.000000
0.029808 0.144362 0.000000
0.030767 0.125383 0.000000
0.031186 0.106138 0.000000
0.031508 0.087220 0.000000
0.031181 0.068277 0.000000
0.029625 0.049391 0.000000
0.027977 0.032195 0.000000
0.026382 0.017691 0.000000
0.022182 0.004837 0.000000
0.014836 -0.005693 0.000000
0.006785 -0.009751 0.000000
-0.004325 -0.006887 0.000000
-0.024798 0.000290 0.000000
-0.045599 0.014475 0.000000
-0.064614 0.039321 0.000000
-0.089979 0.074295 0.000000
-0.116130 0.125582 0.000000
-0.181812 0.211385 0.000000
0.004813 0.325897 0.000000
0.007237 0.323330 0.000000
0.011358 0.319373 0.000000
0.016248 0.313318 0.000000
0.021568 0.304977 0.000000
0.026968 0.294115 0.000000
0.032213 0.280731 0.000000
0.037193 0.265233 0.000000
0.041426 0.247797 0.000000
0.044933 0.228532 0.000000
0.047874 0.207911 0.000000
0.049873 0.186476 0.000000
0.050759 0.164388 0.000000
0.050939 0.141935 0.000000
0.050578 0.119912 0.000000
0.048957 0.098936 0.000000
0.045814 0.079060 0.000000
0.041895 0.060827 0.000000
0.036635 0.045854 0.000000
0.028162 0.034710 0.000000
0.015328 0.027057 0.000000
0.000386 0.024630 0.000000
-0.019368 0.029305 0.000000
-0.046909 0.039800 0.000000
-0.075072 0.058609 0.000000
-0.106122 0.089426 0.000000
-0.146488 0.135045 0.000000
-0.205443 0.205705 0.000000
-0.308410 0.290907 0.000000
0.009670 0.396461 0.000000
0.015093 0.392623 0.000000
0.021934 0.386802 0.000000
0.029424 0.378432 0.000000
0.037228 0.367371 0.000000
0.044770 0.353651 0.000000
0.051767 0.337459 0.000000
0.058033 0.319051 0.000000
0.063331 0.298701 0.000000
0.067573 0.276836 0.000000
0.070611 0.253859 0.000000
0.072404 0.230098 0.000000
0.072956 0.206027 0.000000
0.072288 0.182251 0.000000
0.070142 0.159292 0.000000
0.066287 0.137657 0.000000
0.060983 0.117968 0.000000
0.053447 0.101037 0.000000
0.042833 0.087743 0.000000
0.028699 0.078753 0.000000
0.010568 0.074041 0.000000
-0.012525 0.075332 0.000000
-0.041376 0.083578 0.000000
-0.076130 0.097256 0.000000
-0.115298 0.121279 0.000000
-0.160741 0.157561 0.000000
-0.224614 0.209187 0.000000
-0.306505 0.277488 0.000000
-0.429457 0.355627 0.000000
0.018297 0.462908 0.000000
0.026954 0.457823 0.000000
0.036757 0.450231 0.000000
0.046991 0.439802 0.000000
0.056995 0.426519 0.000000
0.066352 0.410522 0.000000
0.074788 0.392072 0.000000
0.081965 0.371537 0.000000
0.087777 0.349290 0.000000
0.092172 0.325703 0.000000
0.094961 0.301216 0.000000
0.095991 0.276354 0.000000
0.095339 0.251615 0.000000
0.092973 0.227560 0.000000
0.088509 0.204724 0.000000
0.081743 0.183631 0.000000
0.072409 0.165370 0.000000
0.060217 0.150452 0.000000
0.044013 0.139059 0.000000
0.023442 0.132523 0.000000
-0.002046 0.131458 0.000000
-0.033489 0.136114 0.000000
-0.069626 0.147240 0.000000
-0.114574 0.165814 0.000000
-0.164552 0.193540 0.000000
-0.227828 0.234240 0.000000
-0.308534 0.285767 0.000000
-0.412916 0.351538 0.000000
-0.544440 0.421134 0.000000
0.030814 0.526488 0.000000
0.042825 0.520293 0.000000
0.055572 0.511246 0.000000
0.068240 0.499187 0.000000
0.080114 0.484168 0.000000
0.090854 0.466543 0.000000
0.100147 0.446630 0.000000
0.107809 0.424742 0.000000
0.113670 0.401334 0.000000
0.117551 0.376969 0.000000
0.119373 0.352078 0.000000
0.119115 0.327062 0.000000
0.116604 0.302513 0.000000
0.111594 0.279138 0.000000
0.104075 0.257508 0.000000
0.093438 0.238019 0.000000
0.079498 0.221295 0.000000
0.061831 0.208430 0.000000
0.039208 0.199727 0.000000
0.011908 0.195476 0.000000
-0.021311 0.196508 0.000000
-0.060566 0.203452 0.000000
-0.107116 0.218337 0.000000
-0.160806 0.240334 0.000000
-0.225791 0.272761 0.000000
-0.303779 0.316184 0.000000
-0.400782 0.368949 0.000000
-0.516689 0.428051 0.000000
-0.653027 0.488945 0.000000
0.047216 0.588167 0.000000
0.062452 0.581005 0.000000
0.077793 0.570788 0.000000
0.092400 0.557516 0.000000
0.105619 0.541333 0.000000
0.117195 0.522645 0.000000
0.126853 0.501845 0.000000
0.134371 0.479415 0.000000
0.139573 0.455769 0.000000
0.142394 0.431333 0.000000
0.142698 0.406678 0.000000
0.140355 0.382406 0.000000
0.135171 0.358987 0.000000
0.126993 0.336871 0.000000
0.115507 0.316876 0.000000
0.100465 0.299543 0.000000
0.081123 0.285338 0.000000
0.057218 0.275005 0.000000
0.028415 0.268724 0.000000
-0.006484 0.267555 0.000000
-0.047316 0.271850 0.000000
-0.095681 0.281854 0.000000
-0.151313 0.298541 0.000000
-0.216889 0.323816 0.000000
-0.294219 0.356645 0.000000
-0.385358 0.398250 0.000000
-0.493526 0.446683 0.000000
-0.617434 0.501158 0.000000
-0.759112 0.558478 0.000000
0.067180 0.649271 0.000000
0.085217 0.641464 0.000000
0.102609 0.630463 0.000000
0.118562 0.616413 0.000000
0.132551 0.599606 0.000000
0.144376 0.580502 0.000000
0.153718 0.559509 0.000000
0.160474 0.537113 0.000000
0.164493 0.513783 0.000000
0.165586 0.490052 0.000000
0.163688 0.466373 0.000000
0.158584 0.443274 0.000000
0.150202 0.421401 0.000000
0.138123 0.401188 0.000000
0.122112 0.383178 0.000000
0.101882 0.368064 0.000000
0.076811 0.356146 0.000000
0.046767 0.348015 0.000000
0.010626 0.344466 0.000000
-0.031488 0.345348 0.000000
-0.080633 0.352021 0.000000
-0.137355 0.364514 0.000000
-0.203499 0.383859 0.000000
-0.279213 0.410112 0.000000
-0.367868 0.443785 0.000000
-0.469582 0.484098 0.000000
-0.586396 0.529264 0.000000
-0.717372 0.578560 0.000000
-0.862413 0.630485 0.000000
0.090101 0.710790 0.000000
0.110324 0.702607 0.000000
0.129103 0.691222 0.000000
0.145743 0.676858 0.000000
0.159872 0.659923 0.000000
0.171277 0.640929 0.000000
0.179734 0.620295 0.000000
0.185125 0.598530 0.000000
0.187250 0.576122 0.000000
0.186081 0.553557 0.000000
0.181374 0.531376 0.000000
0.172965 0.510015 0.000000
0.160696 0.490061 0.000000
0.144247 0.472039 0.000000
0.123335 0.456315 0.000000
0.097514 0.443513 0.000000
0.066596 0.434059 0.000000
0.029578 0.428443 0.000000
-0.013059 0.426975 0.000000
-0.063273 0.430322 0.000000
-0.120342 0.438845 0.000000
-0.186359 0.453195 0.000000
-0.261319 0.473321 0.000000
-0.347504 0.500077 0.000000
-0.445097 0.532250 0.000000
-0.555392 0.570074 0.000000
-0.678794 0.612173 0.000000
-0.815238 0.657949 0.000000
-0.964014 0.706344 0.000000
0.115186 0.774016 0.000000
0.136885 0.765721 0.000000
0.156337 0.754277 0.000000
0.173006 0.740021 0.000000
0.186602 0.723397 0.000000
0.196964 0.704941 0.000000
0.203931 0.685117 0.000000
0.207332 0.664413 0.000000
0.207097 0.643291 0.000000
0.202992 0.622267 0.000000
0.194979 0.601839 0.000000
0.182787 0.582450 0.000000
0.166150 0.564588 0.000000
0.144983 0.548752 0.000000
0.118695 0.535386 0.000000
0.087230 0.524888 0.000000
0.049893 0.517765 0.000000
0.006563 0.514208 0.000000
-0.043729 0.515114 0.000000
-0.100956 0.520219 0.000000
-0.166530 0.530403 0.000000
-0.240546 0.545693 0.000000
-0.324633 0.566383 0.000000
-0.418745 0.592154 0.000000
-0.524626 0.622969 0.000000
-0.641904 0.658283 0.000000
-0.771443 0.697481 0.000000
-0.912421 0.740101 0.000000
-1.064752 0.785704 0.000000
0.141645 0.839957 0.000000
0.163992 0.831789 0.000000
0.183399 0.820591 0.000000
0.199431 0.806768 0.000000
0.211858 0.790818 0.000000
0.220605 0.773255 0.000000
0.225463 0.754559 0.000000
0.226393 0.735229 0.000000
0.223199 0.715729 0.000000
0.215776 0.696478 0.000000
0.203950 0.677994 0.000000
0.187526 0.660734 0.000000
0.166324 0.645034 0.000000
0.139947 0.631462 0.000000
0.108330 0.620269 0.000000
0.070796 0.611962 0.000000
0.027363 0.606899 0.000000
-0.022912 0.605425 0.000000
-0.079917 0.607755 0.000000
-0.144870 0.614560 0.000000
-0.217850 0.625637 0.000000
-0.299881 0.641481 0.000000
-0.391463 0.661813 0.000000
-0.493292 0.686895 0.000000
-0.605825 0.716010 0.000000
-0.729239 0.749175 0.000000
-0.863822 0.785749 0.000000
-1.009133 0.825550 0.000000
-1.164591 0.868176 0.000000
0.168561 0.909468 0.000000
0.190827 0.901573 0.000000
0.209460 0.890841 0.000000
0.224188 0.877721 0.000000
0.234891 0.862693 0.000000
0.241422 0.846296 0.000000
0.243714 0.828960 0.000000
0.241623 0.811182 0.000000
0.235063 0.793429 0.000000
0.223891 0.776116 0.000000
0.207887 0.759636 0.000000
0.187015 0.744461 0.000000
0.160803 0.730961 0.000000
0.129332 0.719470 0.000000
0.091916 0.710489 0.000000
0.048617 0.704160 0.000000
-0.001292 0.701000 0.000000
-0.057855 0.701142 0.000000
-0.122023 0.705043 0.000000
-0.193706 0.712655 0.000000
-0.274026 0.724407 0.000000
-0.363031 0.740185 0.000000
-0.461630 0.760026 0.000000
-0.569870 0.783769 0.000000
-0.688475 0.811271 0.000000
-0.817239 0.842315 0.000000
-0.956334 0.876560 0.000000
-1.105287 0.913843 0.000000
-1.263876 0.954125 0.000000
0.195191 0.983200 0.000000
0.216561 0.975727 0.000000
0.233767 0.965614 0.000000
0.246625 0.953345 0.000000
0.254994 0.939415 0.000000
0.258879 0.924309 0.000000
0.258096 0.908484 0.000000
0.252601 0.892377 0.000000
0.242298 0.876414 0.000000
0.227018 0.861028 0.000000
0.206659 0.846561 0.000000
0.180938 0.833443 0.000000
0.149835 0.821961 0.000000
0.112798 0.812531 0.000000
0.069971 0.805373 0.000000
0.020565 0.800886 0.000000
-0.035307 0.799272 0.000000
-0.098465 0.800857 0.000000
-0.168849 0.805680 0.000000
-0.247409 0.814124 0.000000
-0.334093 0.826029 0.000000
-0.429693 0.841637 0.000000
-0.534350 0.860718 0.000000
-0.648509 0.883371 0.000000
-0.772271 0.909203 0.000000
-0.905720 0.938222 0.000000
-1.048842 0.970220 0.000000
-1.201294 1.005215 0.000000
-1.362830 1.043167 0.000000
0.220727 1.061612 0.000000
0.240521 1.054619 0.000000
0.255697 1.045249 0.000000
0.266108 1.033944 0.000000
0.271715 1.021198 0.000000
0.272440 1.007489 0.000000
0.268222 0.993217 0.000000
0.258999 0.978809 0.000000
0.244611 0.964662 0.000000
0.225042 0.951152 0.000000
0.200008 0.938626 0.000000
0.169514 0.927397 0.000000
0.133138 0.917853 0.000000
0.090916 0.910172 0.000000
0.042284 0.904805 0.000000
-0.012731 0.901812 0.000000
-0.074734 0.901558 0.000000
-0.143773 0.904131 0.000000
-0.220522 0.909823 0.000000
-0.304981 0.918544 0.000000
-0.397861 0.930514 0.000000
-0.499153 0.945643 0.000000
-0.609440 0.963917 0.000000
-0.728642 0.985241 0.000000
-0.857139 1.009556 0.000000
-0.994745 1.036766 0.000000
-1.141481 1.066763 0.000000
-1.297092 1.099601 0.000000
-1.461383 1.135358 0.000000
0.244494 1.144960 0.000000
0.262094 1.138507 0.000000
0.274684 1.129913 0.000000
0.282172 1.119638 0.000000
0.284561 1.108135 0.000000
0.281790 1.095820 0.000000
0.273819 1.083101 0.000000
0.260531 1.070365 0.000000
0.241934 1.057951 0.000000
0.217795 1.046224 0.000000
0.188125 1.035481 0.000000
0.152562 1.026055 0.000000
0.111182 1.018186 0.000000
0.063464 1.012188 0.000000
0.009519 1.008208 0.000000
-0.051253 1.006566 0.000000
-0.118828 1.007350 0.000000
-0.193769 1.010780 0.000000
-0.276088 1.016872 0.000000
-0.366341 1.025843 0.000000
-0.464612 1.037572 0.000000
-0.571258 1.052190 0.000000
-0.686414 1.069541 0.000000
-0.810263 1.089683 0.000000
-0.942863 1.112446 0.000000
-1.084212 1.137883 0.000000
-1.234280 1.165996 0.000000
-1.392851 1.196895 0.000000
-1.559836 1.230706 0.000000
0.265904 1.233331 0.000000
0.280742 1.227458 0.000000
0.290259 1.219680 0.000000
0.294425 1.210424 0.000000
0.293229 1.200143 0.000000
0.286669 1.189218 0.000000
0.274646 1.178000 0.000000
0.257191 1.166832 0.000000
0.234105 1.156064 0.000000
0.205423 1.145989 0.000000
0.170867 1.136912 0.000000
0.130476 1.129048 0.000000
0.083860 1.122715 0.000000
0.031072 1.118058 0.000000
-0.028355 1.115383 0.000000
-0.094391 1.114754 0.000000
-0.167495 1.116406 0.000000
-0.247706 1.120379 0.000000
-0.335482 1.126834 0.000000
-0.430832 1.135748 0.000000
-0.534158 1.147181 0.000000
-0.645507 1.161121 0.000000
-0.765156 1.177555 0.000000
-0.893094 1.196481 0.000000
-1.029466 1.217878 0.000000
-1.174197 1.241756 0.000000
-1.327284 1.268108 0.000000
-1.488608 1.297095 0.000000
-1.658084 1.328877 0.000000
0.284389 1.326748 0.000000
0.296016 1.321458 0.000000
0.302070 1.314488 0.000000
0.302550 1.306247 0.000000
0.297504 1.297133 0.000000
0.286883 1.287505 0.000000
0.270699 1.277683 0.000000
0.248815 1.268002 0.000000
0.221274 1.258721 0.000000
0.187861 1.250144 0.000000
0.148603 1.242509 0.000000
0.103197 1.236089 0.000000
0.051689 1.231046 0.000000
-0.006297 1.227624 0.000000
-0.070730 1.225924 0.000000
-0.141999 1.226168 0.000000
-0.220133 1.228416 0.000000
-0.305470 1.232809 0.000000
-0.398081 1.239341 0.000000
-0.498256 1.248144 0.000000
-0.606114 1.259178 0.000000
-0.721792 1.272493 0.000000
-0.845443 1.288023 0.000000
-0.977089 1.305793 0.000000
-1.116844 1.325803 0.000000
-1.264638 1.348130 0.000000
-1.420526 1.372863 0.000000
-1.584378 1.400125 0.000000
-1.756247 1.430084 0.000000
0.299540 1.425079 0.000000
0.307544 1.420372 0.000000
0.309804 1.414189 0.000000
0.306364 1.406904 0.000000
0.297224 1.398880 0.000000
0.282416 1.390453 0.000000
0.261845 1.381920 0.000000
0.235568 1.373552 0.000000
0.203404 1.365633 0.000000
0.165388 1.358385 0.000000
0.121298 1.352061 0.000000
0.071161 1.346825 0.000000
0.014693 1.342918 0.000000
-0.048096 1.340450 0.000000
-0.117508 1.339622 0.000000
-0.193570 1.340487 0.000000
-0.276546 1.343203 0.000000
-0.366529 1.347814 0.000000
-0.463741 1.354402 0.000000
-0.568261 1.362974 0.000000
-0.680274 1.373541 0.000000
-0.799863 1.386140 0.000000
-0.927127 1.400777 0.000000
-1.062152 1.417481 0.000000
-1.204948 1.436245 0.000000
-1.355571 1.457151 0.000000
-1.514003 1.480264 0.000000
-1.680231 1.505800 0.000000
-1.854274 1.533927 0.000000
0.310968 1.528191 0.000000
0.315057 1.524002 0.000000
0.313295 1.518537 0.000000
0.305707 1.512130 0.000000
0.292342 1.505113 0.000000
0.273176 1.497778 0.000000
0.248234 1.490387 0.000000
0.217407 1.483220 0.000000
0.180731 1.476482 0.000000
0.138039 1.470410 0.000000
0.089350 1.465178 0.000000
0.034445 1.461000 0.000000
-0.026659 1.458000 0.000000
-0.094209 1.456358 0.000000
-0.168209 1.456164 0.000000
-0.248907 1.457556 0.000000
-0.336350 1.460578 0.000000
-0.430706 1.465318 0.000000
-0.532095 1.471796 0.000000
-0.640623 1.480076 0.000000
-0.756419 1.490172 0.000000
-0.879560 1.502093 0.000000
-1.010137 1.515854 0.000000
-1.148175 1.531492 0.000000
-1.293782 1.549053 0.000000
-1.446915 1.568601 0.000000
-1.607696 1.590228 0.000000
-1.776105 1.614100 0.000000
-1.952181 1.640423 0.000000
0.318447 1.635808 0.000000
0.318377 1.632098 0.000000
0.312391 1.627283 0.000000
0.300526 1.621668 0.000000
0.282809 1.615542 0.000000
0.259267 1.609176 0.000000
0.229837 1.602811 0.000000
0.194562 1.596665 0.000000
0.153320 1.590964 0.000000
0.106128 1.585881 0.000000
0.052831 1.581613 0.000000
-0.006567 1.578283 0.000000
-0.072244 1.576070 0.000000
-0.144222 1.575061 0.000000
-0.222677 1.575394 0.000000
-0.307640 1.577126 0.000000
-0.399282 1.580349 0.000000
-0.497676 1.585111 0.000000
-0.602923 1.591460 0.000000
-0.715147 1.599420 0.000000
-0.834389 1.609005 0.000000
-0.960753 1.620248 0.000000
-1.094317 1.633153 0.000000
-1.235117 1.647772 0.000000
-1.383232 1.664149 0.000000
-1.538708 1.682393 0.000000
-1.701609 1.702584 0.000000
-1.871993 1.724871 0.000000
-2.049958 1.749460 0.000000
0.321749 1.747684 0.000000
0.317369 1.744385 0.000000
0.307035 1.740141 0.000000
0.290789 1.735215 0.000000
0.268678 1.729883 0.000000
0.240692 1.724369 0.000000
0.206857 1.718883 0.000000
0.167098 1.713636 0.000000
0.121440 1.708807 0.000000
0.069767 1.704574 0.000000
0.012095 1.701077 0.000000
-0.051724 1.698475 0.000000
-0.121692 1.696866 0.000000
-0.197950 1.696375 0.000000
-0.280530 1.697078 0.000000
-0.369567 1.699071 0.000000
-0.465094 1.702407 0.000000
-0.567238 1.707129 0.000000
-0.676054 1.713272 0.000000
-0.791608 1.720858 0.000000
-0.914020 1.729920 0.000000
-1.043308 1.740483 0.000000
-1.179571 1.752572 0.000000
-1.322875 1.766222 0.000000
-1.473277 1.781475 0.000000
-1.630854 1.798429 0.000000
-1.795689 1.817184 0.000000
-1.967885 1.837897 0.000000
-2.147545 1.860764 0.000000
0.320775 1.863480 0.000000
0.311957 1.860545 0.000000
0.297192 1.856795 0.000000
0.276522 1.852478 0.000000
0.249988 1.847819 0.000000
0.217612 1.843031 0.000000
0.179358 1.838302 0.000000
0.135247 1.833810 0.000000
0.085211 1.829723 0.000000
0.029256 1.826183 0.000000
-0.032716 1.823339 0.000000
-0.100708 1.821297 0.000000
-0.174821 1.820188 0.000000
-0.255092 1.820085 0.000000
-0.341596 1.821085 0.000000
-0.434398 1.823231 0.000000
-0.533563 1.826588 0.000000
-0.639149 1.831203 0.000000
-0.751238 1.837102 0.000000
-0.869887 1.844319 0.000000
-0.995150 1.852853 0.000000
-1.127120 1.862740 0.000000
-1.265837 1.874004 0.000000
-1.411379 1.886702 0.000000
-1.563857 1.900872 0.000000
-1.723318 1.916603 0.000000
-1.889900 1.933987 0.000000
-2.063731 1.953152 0.000000
-2.244907 1.974289 0.000000
0.315412 1.982912 0.000000
0.302109 1.980273 0.000000
0.282878 1.976939 0.000000
0.257787 1.973123 0.000000
0.226863 1.969035 0.000000
0.190116 1.964857 0.000000
0.147550 1.960754 0.000000
0.099146 1.956889 0.000000
0.044895 1.953404 0.000000
-0.015250 1.950443 0.000000
-0.081302 1.948115 0.000000
-0.153330 1.946541 0.000000
-0.231353 1.945803 0.000000
-0.315428 1.945994 0.000000
-0.405611 1.947174 0.000000
-0.501927 1.949413 0.000000
-0.604469 1.952747 0.000000
-0.713249 1.957210 0.000000
-0.828343 1.962835 0.000000
-0.949795 1.969643 0.000000
-1.077679 1.977660 0.000000
-1.212042 1.986902 0.000000
-1.352997 1.997383 0.000000
-1.500572 2.009158 0.000000
-1.654903 2.022259 0.000000
-1.816069 2.036778 0.000000
-1.984203 2.052808 0.000000
-2.159467 2.070460 0.000000
-2.342004 2.089914 0.000000
0.305662 2.105638 0.000000
0.287835 2.103237 0.000000
0.264162 2.100242 0.000000
0.234671 2.096844 0.000000
0.199408 2.093222 0.000000
0.158374 2.089537 0.000000
0.111579 2.085946 0.000000
0.059013 2.082587 0.000000
0.000656 2.079594 0.000000
-0.063498 2.077084 0.000000
-0.133493 2.075169 0.000000
-0.209331 2.073941 0.000000
-0.291075 2.073489 0.000000
-0.378731 2.073886 0.000000
-0.472352 2.075195 0.000000
-0.571973 2.077462 0.000000
-0.677610 2.080728 0.000000
-0.789344 2.085021 0.000000
-0.907191 2.090362 0.000000
-1.031217 2.096772 0.000000
-1.161480 2.104258 0.000000
-1.298030 2.112853 0.000000
-1.440965 2.122559 0.000000
-1.590364 2.133428 0.000000
-1.746344 2.145491 0.000000
-1.909023 2.158827 0.000000
-2.078543 2.173530 0.000000
-2.255074 2.189701 0.000000
-2.438804 2.207500 0.000000
0.291498 2.231356 0.000000
0.269201 2.229131 0.000000
0.241117 2.226393 0.000000
0.207298 2.223316 0.000000
0.167770 2.220060 0.000000
0.122544 2.216769 0.000000
0.071630 2.213584 0.000000
0.015022 2.210629 0.000000
-0.047281 2.208021 0.000000
-0.115298 2.205869 0.000000
-0.189037 2.204271 0.000000
-0.268528 2.203317 0.000000
-0.353769 2.203079 0.000000
-0.444809 2.203619 0.000000
-0.541641 2.204997 0.000000
-0.644318 2.207246 0.000000
-0.752857 2.210411 0.000000
-0.867287 2.214508 0.000000
-0.987662 2.219553 0.000000
-1.114014 2.225558 0.000000
-1.246421 2.232525 0.000000
-1.384938 2.240484 0.000000
-1.529665 2.249434 0.000000
-1.680687 2.259425 0.000000
-1.838139 2.270479 0.000000
-2.002144 2.282660 0.000000
-2.172867 2.296049 0.000000
-2.350499 2.310744 0.000000
-2.535230 2.326884 0.000000
0.273011 2.359751 0.000000
0.246285 2.357641 0.000000
0.213864 2.355089 0.000000
0.175795 2.352255 0.000000
0.132096 2.349277 0.000000
0.082787 2.346291 0.000000
0.027878 2.343417 0.000000
-0.032630 2.340772 0.000000
-0.098735 2.338464 0.000000
-0.170448 2.336586 0.000000
-0.247763 2.335231 0.000000
-0.330700 2.334469 0.000000
-0.419257 2.334380 0.000000
-0.513453 2.335009 0.000000
-0.613297 2.336409 0.000000
-0.718811 2.338612 0.000000
-0.830011 2.341644 0.000000
-0.946929 2.345524 0.000000
-1.069604 2.350264 0.000000
-1.198076 2.355873 0.000000
-1.332422 2.362341 0.000000
-1.472691 2.369684 0.000000
-1.619015 2.377900 0.000000
-1.771462 2.387020 0.000000
-1.930198 2.397069 0.000000
-2.095356 2.408105 0.000000
-2.267106 2.420200 0.000000
-2.445672 2.433439 0.000000
-2.631235 2.447945 0.000000
0.250262 2.490493 0.000000
0.219190 2.488444 0.000000
0.182522 2.486018 0.000000
0.140298 2.483359 0.000000
0.092540 2.480588 0.000000
0.039274 2.477826 0.000000
-0.019500 2.475186 0.000000
-0.083764 2.472774 0.000000
-0.153517 2.470685 0.000000
-0.228752 2.469011 0.000000
-0.309468 2.467827 0.000000
-0.395666 2.467208 0.000000
-0.487342 2.467211 0.000000
-0.584502 2.467892 0.000000
-0.687145 2.469290 0.000000
-0.795290 2.471424 0.000000
-0.908939 2.474320 0.000000
-1.028138 2.477981 0.000000
-1.152900 2.482411 0.000000
-1.283287 2.487612 0.000000
-1.419359 2.493572 0.000000
-1.561199 2.500304 0.000000
-1.708909 2.507791 0.000000
-1.862610 2.516060 0.000000
-2.022450 2.525128 0.000000
-2.188588 2.535038 0.000000
-2.361212 2.545856 0.000000
-2.540525 2.557653 0.000000
-2.726764 2.570532 0.000000
0.223365 2.623313 0.000000
0.188034 2.621267 0.000000
0.147219 2.618910 0.000000
0.100955 2.616358 0.000000
0.049266 2.613723 0.000000
-0.007837 2.611120 0.000000
-0.070327 2.608646 0.000000
-0.138197 2.606397 0.000000
-0.211439 2.604465 0.000000
-0.290032 2.602935 0.000000
-0.373977 2.601876 0.000000
-0.463253 2.601355 0.000000
-0.557863 2.601424 0.000000
-0.657795 2.602125 0.000000
-0.763039 2.603493 0.000000
-0.873612 2.605544 0.000000
-0.989512 2.608293 0.000000
-1.110771 2.611727 0.000000
-1.237423 2.615849 0.000000
-1.369518 2.620649 0.000000
-1.507132 2.626110 0.000000
-1.650344 2.632228 0.000000
-1.799275 2.638993 0.000000
-1.954049 2.646418 0.000000
-2.114822 2.654507 0.000000
-2.281773 2.663300 0.000000
-2.455096 2.672846 0.000000
-2.634997 2.683218 0.000000
-2.821743 2.694503 0.000000
0.192419 2.757941 0.000000
0.152941 2.755861 0.000000
0.108102 2.753515 0.000000
0.057921 2.751011 0.000000
0.002419 2.748457 0.000000
-0.058370 2.745949 0.000000
-0.124440 2.743584 0.000000
-0.195768 2.741449 0.000000
-0.272337 2.739628 0.000000
-0.354126 2.738198 0.000000
-0.441124 2.737224 0.000000
-0.533305 2.736768 0.000000
-0.630659 2.736866 0.000000
-0.733164 2.737557 0.000000
-0.840820 2.738873 0.000000
-0.953626 2.740820 0.000000
-1.071577 2.743408 0.000000
-1.194716 2.746624 0.000000
-1.323063 2.750450 0.000000
-1.456679 2.754863 0.000000
-1.595643 2.759836 0.000000
-1.740041 2.765357 0.000000
-1.890016 2.771403 0.000000
-2.045682 2.777978 0.000000
-2.207230 2.785093 0.000000
-2.374832 2.792771 0.000000
-2.548696 2.801058 0.000000
-2.729053 2.810032 0.000000
-2.916131 2.819746 0.000000
0.157550 2.894121 0.000000
0.114057 2.891968 0.000000
0.065315 2.889593 0.000000
0.011342 2.887089 0.000000
-0.047823 2.884555 0.000000
-0.112171 2.882090 0.000000
-0.181671 2.879782 0.000000
-0.256303 2.877710 0.000000
-0.336042 2.875955 0.000000
-0.420867 2.874584 0.000000
-0.510746 2.873662 0.000000
-0.605655 2.873239 0.000000
-0.705570 2.873356 0.000000
-0.810479 2.874041 0.000000
-0.920359 2.875307 0.000000
-1.035203 2.877156 0.000000
-1.155028 2.879586 0.000000
-1.279842 2.882572 0.000000
-1.409696 2.886089 0.000000
-1.544644 2.890108 0.000000
-1.684774 2.894593 0.000000
-1.830193 2.899518 0.000000
-1.981029 2.904854 0.000000
-2.137438 2.910598 0.000000
-2.299595 2.916751 0.000000
-2.467695 2.923327 0.000000
-2.641962 2.930366 0.000000
-2.822598 2.937931 0.000000
-3.009858 2.946075 0.000000
0.118899 3.031589 0.000000
0.071519 3.029333 0.000000
0.019004 3.026886 0.000000
-0.038614 3.024342 0.000000
-0.101322 3.021796 0.000000
-0.169076 3.019335 0.000000
-0.241862 3.017040 0.000000
-0.319648 3.014998 0.000000
-0.402402 3.013278 0.000000
-0.490096 3.011941 0.000000
-0.582693 3.011050 0.000000
-0.680161 3.010650 0.000000
-0.782476 3.010774 0.000000
-0.889594 3.011441 0.000000
-1.001516 3.012652 0.000000
-1.118219 3.014405 0.000000
-1.239719 3.016675 0.000000
-1.366031 3.019439 0.000000
-1.497209 3.022658 0.000000
-1.633311 3.026289 0.000000
-1.774434 3.030287 0.000000
-1.920696 3.034615 0.000000
-2.072233 3.039244 0.000000
-2.229224 3.044147 0.000000
-2.391832 3.049331 0.000000
-2.560284 3.054808 0.000000
-2.734794 3.060596 0.000000
-2.915567 3.066773 0.000000
-3.102885 3.073398 0.000000
0.076610 3.170132 0.000000
0.025475 3.167732 0.000000
-0.030675 3.165180 0.000000
-0.091816 3.162563 0.000000
-0.157910 3.159965 0.000000
-0.228934 3.157475 0.000000
-0.304864 3.155172 0.000000
-0.385652 3.153133 0.000000
-0.471269 3.151427 0.000000
-0.561673 3.150113 0.000000
-0.656829 3.149239 0.000000
-0.756688 3.148851 0.000000
-0.861215 3.148967 0.000000
-0.970380 3.149607 0.000000
-1.084160 3.150766 0.000000
-1.202544 3.152427 0.000000
-1.325540 3.154556 0.000000
-1.453172 3.157110 0.000000
-1.585488 3.160037 0.000000
-1.722566 3.163281 0.000000
-1.864509 3.166790 0.000000
-2.011447 3.170518 0.000000
-2.163525 3.174423 0.000000
-2.320935 3.178484 0.000000
-2.483865 3.182698 0.000000
-2.652516 3.187077 0.000000
-2.827140 3.191639 0.000000
-3.007942 3.196459 0.000000
-3.195145 3.201570 0.000000
0.030830 3.309536 0.000000
-0.023928 3.306964 0.000000
-0.083583 3.304275 0.000000
-0.148096 3.301549 0.000000
-0.217450 3.298876 0.000000
-0.291608 3.296334 0.000000
-0.370528 3.293999 0.000000
-0.454173 3.291942 0.000000
-0.542501 3.290234 0.000000
-0.635462 3.288930 0.000000
-0.733008 3.288072 0.000000
-0.835091 3.287693 0.000000
-0.941670 3.287815 0.000000
-1.052709 3.288438 0.000000
-1.168175 3.289551 0.000000
-1.288060 3.291125 0.000000
-1.412369 3.293110 0.000000
-1.541135 3.295452 0.000000
-1.674416 3.298088 0.000000
-1.812299 3.300954 0.000000
-1.954897 3.303979 0.000000
-2.102340 3.307106 0.000000
-2.254820 3.310297 0.000000
-2.412499 3.313514 0.000000
-2.575601 3.316750 0.000000
-2.744333 3.320029 0.000000
-2.918936 3.323357 0.000000
-3.099610 3.326797 0.000000
-3.286574 3.330403 0.000000
-0.018299 3.449608 0.000000
-0.076551 3.446842 0.000000
-0.139561 3.443992 0.000000
-0.207328 3.441136 0.000000
-0.279799 3.438359 0.000000
-0.356941 3.435736 0.000000
-0.438711 3.433345 0.000000
-0.525074 3.431258 0.000000
-0.615959 3.429539 0.000000
-0.711324 3.428241 0.000000
-0.811106 3.427402 0.000000
-0.915258 3.427051 0.000000
-1.023721 3.427194 0.000000
-1.136454 3.427815 0.000000
-1.253431 3.428893 0.000000
-1.374634 3.430382 0.000000
-1.500082 3.432231 0.000000
-1.629812 3.434369 0.000000
-1.763886 3.436719 0.000000
-1.902400 3.439200 0.000000
-2.045480 3.441734 0.000000
-2.193293 3.444256 0.000000
-2.345999 3.446719 0.000000
-2.503818 3.449077 0.000000
-2.666962 3.451333 0.000000
-2.835637 3.453505 0.000000
-3.010096 3.455595 0.000000
-3.190527 3.457692 0.000000
-3.377167 3.459860 0.000000
-0.070646 3.590145 0.000000
-0.132235 3.587173 0.000000
-0.198486 3.584144 0.000000
-0.269357 3.581138 0.000000
-0.344809 3.578241 0.000000
-0.424800 3.575531 0.000000
-0.509296 3.573083 0.000000
-0.598214 3.570962 0.000000
-0.691523 3.569230 0.000000
-0.789136 3.567937 0.000000
-0.891005 3.567120 0.000000
-0.997057 3.566792 0.000000
-1.107229 3.566955 0.000000
-1.221495 3.567585 0.000000
-1.339799 3.568648 0.000000
-1.462160 3.570083 0.000000
-1.588570 3.571817 0.000000
-1.719080 3.573763 0.000000
-1.853773 3.575820 0.000000
-1.992752 3.577909 0.000000
-2.136156 3.579943 0.000000
-2.284184 3.581842 0.000000
-2.436973 3.583557 0.000000
-2.594803 3.585057 0.000000
-2.757865 3.586321 0.000000
-2.926360 3.587382 0.000000
-3.100580 3.588265 0.000000
-3.280694 3.589049 0.000000
-3.466870 3.589784 0.000000
-0.126045 3.730967 0.000000
-0.190856 3.727766 0.000000
-0.260201 3.724539 0.000000
-0.334050 3.721372 0.000000
-0.412351 3.718346 0.000000
-0.495070 3.715542 0.000000
-0.582125 3.713030 0.000000
-0.673487 3.710877 0.000000
-0.769054 3.709144 0.000000
-0.868778 3.707874 0.000000
-0.972569 3.707089 0.000000
-1.080361 3.706805 0.000000
-1.192089 3.707016 0.000000
-1.307707 3.707678 0.000000
-1.427185 3.708742 0.000000
-1.550502 3.710127 0.000000
-1.677702 3.711742 0.000000
-1.808816 3.713493 0.000000
-1.943959 3.715266 0.000000
-2.083238 3.716968 0.000000
-2.226829 3.718493 0.000000
-2.374886 3.719766 0.000000
-2.527676 3.720735 0.000000
-2.685361 3.721353 0.000000
-2.848215 3.721614 0.000000
-3.016468 3.721571 0.000000
-3.190331 3.721227 0.000000
-3.369988 3.720669 0.000000
-3.555632 3.719977 0.000000
-0.184371 3.871929 0.000000
-0.252262 3.868482 0.000000
-0.324585 3.865044 0.000000
-0.401273 3.861703 0.000000
-0.482302 3.858536 0.000000
-0.567598 3.855627 0.000000
-0.657109 3.853056 0.000000
-0.750747 3.850885 0.000000
-0.848456 3.849160 0.000000
-0.950122 3.847929 0.000000
-1.055688 3.847204 0.000000
-1.165061 3.846997 0.000000
-1.278179 3.847270 0.000000
-1.394978 3.847983 0.000000
-1.515436 3.849062 0.000000
-1.639553 3.850411 0.000000
-1.767353 3.851926 0.000000
-1.898908 3.853495 0.000000
-2.034336 3.854982 0.000000
-2.173752 3.856285 0.000000
-2.317368 3.857295 0.000000
-2.465364 3.857930 0.000000
-2.617965 3.858128 0.000000
-2.775422 3.857857 0.000000
-2.937984 3.857109 0.000000
-3.105840 3.855936 0.000000
-3.279280 3.854360 0.000000
-3.458411 3.852502 0.000000
-3.643454 3.850452 0.000000
-0.245468 4.012874 0.000000
-0.316333 4.009158 0.000000
-0.391487 4.005498 0.000000
-0.470906 4.001972 0.000000
-0.554529 3.998663 0.000000
-0.642286 3.995664 0.000000
-0.734108 3.993039 0.000000
-0.829903 3.990849 0.000000
-0.929590 3.989155 0.000000
-1.033063 3.987987 0.000000
-1.140253 3.987350 0.000000
-1.251037 3.987238 0.000000
-1.365366 3.987608 0.000000
-1.483185 3.988395 0.000000
-1.604443 3.989514 0.000000
-1.729176 3.990846 0.000000
-1.857407 3.992266 0.000000
-1.989231 3.993644 0.000000
-2.124764 3.994837 0.000000
-2.264191 3.995734 0.000000
-2.407667 3.996210 0.000000
-2.555465 3.996183 0.000000
-2.707785 3.995600 0.000000
-2.864882 3.994431 0.000000
-3.027059 3.992659 0.000000
-3.194452 3.990355 0.000000
-3.367375 3.987578 0.000000
-3.545977 3.984447 0.000000
-3.730317 3.981050 0.000000
-0.309216 4.153611 0.000000
-0.382918 4.149631 0.000000
-0.460804 4.145750 0.000000
-0.542821 4.142043 0.000000
-0.628919 4.138602 0.000000
-0.719014 4.135506 0.000000
-0.813000 4.132839 0.000000
-0.910834 4.130655 0.000000
-1.012352 4.129018 0.000000
-1.117500 4.127937 0.000000
-1.226128 4.127419 0.000000
-1.338175 4.127440 0.000000
-1.453547 4.127936 0.000000
-1.572185 4.128827 0.000000
-1.694082 4.130001 0.000000
-1.819239 4.131324 0.000000
-1.947732 4.132652 0.000000
-2.079644 4.133840 0.000000
-2.215156 4.134734 0.000000
-2.354397 4.135208 0.000000
-2.497649 4.135141 0.000000
-2.645100 4.134444 0.000000
-2.797036 4.133068 0.000000
-2.953707 4.130983 0.000000
-3.115361 4.128197 0.000000
-3.282284 4.124779 0.000000
-3.454627 4.120793 0.000000
-3.632564 4.116372 0.000000
-3.816218 4.111639 0.000000
-0.375494 4.294027 0.000000
-0.451919 4.289781 0.000000
-0.532394 4.285671 0.000000
-0.616913 4.281778 0.000000
-0.705357 4.278205 0.000000
-0.797647 4.275041 0.000000
-0.893715 4.272353 0.000000
-0.993415 4.270205 0.000000
-1.096646 4.268644 0.000000
-1.203286 4.267685 0.000000
-1.313230 4.267322 0.000000
-1.426347 4.267513 0.000000
-1.542589 4.268170 0.000000
-1.661877 4.269194 0.000000
-1.784214 4.270450 0.000000
-1.909630 4.271783 0.000000
-2.038201 4.273036 0.000000
-2.170054 4.274033 0.000000
-2.305362 4.274618 0.000000
-2.444332 4.274666 0.000000
-2.587190 4.274046 0.000000
-2.734223 4.272672 0.000000
-2.885653 4.270485 0.000000
-3.041817 4.267476 0.000000
-3.202925 4.263669 0.000000
-3.369227 4.259107 0.000000
-3.540974 4.253892 0.000000
-3.718211 4.248210 0.000000
-3.901148 4.242209 0.000000
-0.444164 4.433988 0.000000
-0.523175 4.429461 0.000000
-0.606172 4.425109 0.000000
-0.693044 4.421047 0.000000
-0.783734 4.417356 0.000000
-0.878117 4.414141 0.000000
-0.976107 4.411453 0.000000
-1.077556 4.409378 0.000000
-1.182353 4.407942 0.000000
-1.290350 4.407157 0.000000
-1.401413 4.406987 0.000000
-1.515451 4.407380 0.000000
-1.632362 4.408233 0.000000
-1.752122 4.409416 0.000000
-1.874712 4.410773 0.000000
-2.000213 4.412120 0.000000
-2.128679 4.413286 0.000000
-2.260323 4.414081 0.000000
-2.395292 4.414353 0.000000
-2.533843 4.413952 0.000000
-2.676223 4.412758 0.000000
-2.822698 4.410694 0.000000
-2.973584 4.407696 0.000000
-3.129130 4.403759 0.000000
-3.289624 4.398906 0.000000
-3.455280 4.393221 0.000000
-3.626377 4.386827 0.000000
-3.802972 4.379916 0.000000
-3.985123 4.372657 0.000000
-0.515089 4.573356 0.000000
-0.596614 4.568543 0.000000
-0.681992 4.563965 0.000000
-0.771131 4.559724 0.000000
-0.863935 4.555931 0.000000
-0.960298 4.552673 0.000000
-1.060095 4.550038 0.000000
-1.163164 4.548076 0.000000
-1.269368 4.546807 0.000000
-1.378546 4.546231 0.000000
-1.490577 4.546310 0.000000
-1.605333 4.546951 0.000000
-1.722746 4.548038 0.000000
-1.842773 4.549403 0.000000
-1.965440 4.550861 0.000000
-2.090820 4.552217 0.000000
-2.219054 4.553292 0.000000
-2.350319 4.553884 0.000000
-2.484832 4.553826 0.000000
-2.622836 4.552966 0.000000
-2.764649 4.551196 0.000000
-2.910501 4.548446 0.000000
-3.060742 4.544635 0.000000
-3.215628 4.539773 0.000000
-3.375441 4.533905 0.000000
-3.540485 4.527131 0.000000
-3.710869 4.519556 0.000000
-3.886769 4.511400 0.000000
-4.068196 4.502897 0.000000
-0.588166 4.712015 0.000000
-0.672105 4.706901 0.000000
-0.759749 4.702091 0.000000
-0.851058 4.697695 0.000000
-0.945875 4.693827 0.000000
-1.044114 4.690567 0.000000
-1.145568 4.688008 0.000000
-1.250117 4.686189 0.000000
-1.357572 4.685143 0.000000
-1.467787 4.684848 0.000000
-1.580588 4.685230 0.000000
-1.695891 4.686171 0.000000
-1.813591 4.687523 0.000000
-1.933689 4.689089 0.000000
-2.056248 4.690666 0.000000
-2.181363 4.692054 0.000000
-2.309194 4.693028 0.000000
-2.439958 4.693405 0.000000
-2.573882 4.693012 0.000000
-2.711282 4.691703 0.000000
-2.852413 4.689359 0.000000
-2.997587 4.685916 0.000000
-3.147118 4.681308 0.000000
-3.301304 4.675556 0.000000
-3.460450 4.668689 0.000000
-3.624753 4.660809 0.000000
-3.794455 4.652051 0.000000
-3.969652 4.642689 0.000000
-4.150411 4.632991 0.000000
-0.663293 4.849802 0.000000
-0.749512 4.844403 0.000000
-0.839379 4.839383 0.000000
-0.932728 4.834855 0.000000
-1.029469 4.830927 0.000000
-1.129429 4.827703 0.000000
-1.232439 4.825271 0.000000
-1.338323 4.823669 0.000000
-1.446888 4.822913 0.000000
-1.557939 4.822948 0.000000
-1.671328 4.823675 0.000000
-1.786953 4.824951 0.000000
-1.904743 4.826590 0.000000
-2.024739 4.828381 0.000000
-2.147011 4.830091 0.000000
-2.271680 4.831486 0.000000
-2.398981 4.832341 0.000000
-2.529115 4.832493 0.000000
-2.662390 4.831766 0.000000
-2.799069 4.830006 0.000000
-2.939472 4.827099 0.000000
-3.083903 4.822988 0.000000
-3.232705 4.817616 0.000000
-3.386132 4.810983 0.000000
-3.544549 4.803113 0.000000
-3.708092 4.794142 0.000000
-3.877150 4.784250 0.000000
-4.051684 4.773721 0.000000
-4.231802 4.762840 0.000000
-0.740337 4.986631 0.000000
-0.828813 4.980954 0.000000
-0.920738 4.975731 0.000000
-1.016050 4.971080 0.000000
-1.114603 4.967120 0.000000
-1.216182 4.963994 0.000000
-1.320614 4.961748 0.000000
-1.427687 4.960425 0.000000
-1.537166 4.960009 0.000000
-1.648853 4.960438 0.000000
-1.762644 4.961564 0.000000
-1.878368 4.963222 0.000000
-1.996069 4.965170 0.000000
-2.115758 4.967187 0.000000
-2.237554 4.968990 0.000000
-2.361641 4.970386 0.000000
-2.488290 4.971116 0.000000
-2.617728 4.971036 0.000000
-2.750248 4.969964 0.000000
-2.886154 4.967766 0.000000
-3.025793 4.964327 0.000000
-3.169442 4.959584 0.000000
-3.317456 4.953473 0.000000
-3.470109 4.945994 0.000000
-3.627735 4.937195 0.000000
-3.790637 4.927217 0.000000
-3.958992 4.916237 0.000000
-4.132915 4.904531 0.000000
-4.312419 4.892489 0.000000
-0.819253 5.122361 0.000000
-0.909805 5.116394 0.000000
-1.003756 5.110971 0.000000
-1.100945 5.106237 0.000000
-1.201209 5.102330 0.000000
-1.304282 5.099348 0.000000
-1.409997 5.097358 0.000000
-1.518077 5.096383 0.000000
-1.628281 5.096405 0.000000
-1.740435 5.097286 0.000000
-1.854362 5.098875 0.000000
-1.970000 5.100927 0.000000
-2.087392 5.103196 0.000000
-2.206554 5.105396 0.000000
-2.327767 5.107301 0.000000
-2.451159 5.108689 0.000000
-2.577065 5.109307 0.000000
-2.705714 5.108995 0.000000
-2.837449 5.107607 0.000000
-2.972559 5.105011 0.000000
-3.111381 5.101095 0.000000
-3.254232 5.095753 0.000000
-3.401402 5.088967 0.000000
-3.553308 5.080712 0.000000
-3.710167 5.071055 0.000000
-3.872362 5.060077 0.000000
-4.039994 5.047971 0.000000
-4.213347 5.035090 0.000000
-4.392360 5.021909 0.000000
-0.899846 5.256873 0.000000
-0.992488 5.250634 0.000000
-1.088356 5.245061 0.000000
-1.187359 5.240271 0.000000
-1.289162 5.236436 0.000000
-1.393651 5.233654 0.000000
-1.500461 5.232007 0.000000
-1.609396 5.231476 0.000000
-1.720104 5.232006 0.000000
-1.832488 5.233416 0.000000
-1.946309 5.235491 0.000000
-2.061664 5.237948 0.000000
-2.178459 5.240510 0.000000
-2.297053 5.242891 0.000000
-2.417498 5.244881 0.000000
-2.540127 5.246223 0.000000
-2.665206 5.246719 0.000000
-2.793058 5.246201 0.000000
-2.923954 5.244547 0.000000
-3.058283 5.241589 0.000000
-3.196236 5.237262 0.000000
-3.338282 5.231427 0.000000
-3.484662 5.224076 0.000000
-3.635744 5.215141 0.000000
-3.791850 5.204664 0.000000
-3.953251 5.192723 0.000000
-4.120274 5.179581 0.000000
-4.293133 5.165607 0.000000
-4.471779 5.151299 0.000000
-0.982138 5.390085 0.000000
-1.076730 5.383595 0.000000
-1.174479 5.377843 0.000000
-1.275107 5.373037 0.000000
-1.378454 5.369336 0.000000
-1.484153 5.366868 0.000000
-1.591949 5.365642 0.000000
-1.701465 5.365669 0.000000
-1.812514 5.366785 0.000000
-1.924779 5.368771 0.000000
-2.038331 5.371331 0.000000
-2.153074 5.374187 0.000000
-2.269244 5.377034 0.000000
-2.387051 5.379590 0.000000
-2.506669 5.381610 0.000000
-2.628473 5.382912 0.000000
-2.752707 5.383314 0.000000
-2.879757 5.382640 0.000000
-3.009818 5.380759 0.000000
-3.143314 5.377532 0.000000
-3.280468 5.372876 0.000000
-3.421689 5.366652 0.000000
-3.567242 5.358806 0.000000
-3.717498 5.349255 0.000000
-3.872786 5.338054 0.000000
-4.033469 5.325283 0.000000
-4.199941 5.311162 0.000000
-4.372321 5.296059 0.000000
-4.550708 5.280575 0.000000
-1.065951 5.521849 0.000000
-1.162454 5.515070 0.000000
-1.261976 5.509195 0.000000
-1.364241 5.504466 0.000000
-1.468965 5.501012 0.000000
-1.575740 5.498940 0.000000
-1.684291 5.498261 0.000000
-1.794192 5.498921 0.000000
-1.905191 5.500659 0.000000
-2.017162 5.503233 0.000000
-2.130139 5.506278 0.000000
-2.244141 5.509527 0.000000
-2.359550 5.512594 0.000000
-2.476399 5.515265 0.000000
-2.595206 5.517308 0.000000
-2.716152 5.518597 0.000000
-2.839603 5.518916 0.000000
-2.965772 5.518153 0.000000
-3.095093 5.516130 0.000000
-3.227750 5.512761 0.000000
-3.364132 5.507889 0.000000
-3.504516 5.501403 0.000000
-3.649194 5.493189 0.000000
-3.798673 5.483170 0.000000
-3.953160 5.471396 0.000000
-4.113190 5.457916 0.000000
-4.279017 5.442873 0.000000
-4.450992 5.426648 0.000000
-4.629246 5.409909 0.000000
-1.151209 5.651948 0.000000
-1.249630 5.644958 0.000000
-1.350873 5.639074 0.000000
-1.454684 5.634463 0.000000
-1.560559 5.631346 0.000000
-1.668311 5.629770 0.000000
-1.777322 5.629783 0.000000
-1.887274 5.631134 0.000000
-1.997968 5.633586 0.000000
-2.109367 5.636707 0.000000
-2.221529 5.640204 0.000000
-2.334690 5.643702 0.000000
-2.449089 5.646951 0.000000
-2.565113 5.649711 0.000000
-2.683085 5.651805 0.000000
-2.803167 5.653107 0.000000
-2.925845 5.653409 0.000000
-3.051262 5.652650 0.000000
-3.179817 5.650623 0.000000
-3.311688 5.647219 0.000000
-3.447297 5.642272 0.000000
-3.586847 5.635681 0.000000
-3.730741 5.627294 0.000000
-3.879370 5.617028 0.000000
-4.033138 5.604805 0.000000
-4.192389 5.590645 0.000000
-4.357592 5.574724 0.000000
-4.529247 5.557480 0.000000
-4.707504 5.539558 0.000000
-1.237970 5.780400 0.000000
-1.338201 5.773224 0.000000
-1.441087 5.767294 0.000000
-1.546231 5.762916 0.000000
-1.653285 5.760257 0.000000
-1.761666 5.759392 0.000000
-1.870795 5.760161 0.000000
-1.980523 5.762310 0.000000
-2.090534 5.765422 0.000000
-2.201127 5.769042 0.000000
-2.312246 5.772881 0.000000
-2.424492 5.776553 0.000000
-2.537946 5.779954 0.000000
-2.653143 5.782807 0.000000
-2.770256 5.784996 0.000000
-2.889640 5.786350 0.000000
-3.011558 5.786774 0.000000
-3.136307 5.786146 0.000000
-3.264118 5.784250 0.000000
-3.395283 5.780975 0.000000
-3.530139 5.776172 0.000000
-3.668877 5.769682 0.000000
-3.812061 5.761301 0.000000
-3.959824 5.750953 0.000000
-4.112716 5.738454 0.000000
-4.271226 5.723781 0.000000
-4.435986 5.707143 0.000000
-4.607322 5.688964 0.000000
-4.785822 5.669871 0.000000
-1.326068 5.907038 0.000000
-1.428025 5.899629 0.000000
-1.532527 5.893772 0.000000
-1.638994 5.889785 0.000000
-1.746952 5.887778 0.000000
-1.855515 5.887738 0.000000
-1.964563 5.889401 0.000000
-2.073490 5.892360 0.000000
-2.182652 5.896020 0.000000
-2.292069 5.900051 0.000000
-2.402239 5.904069 0.000000
-2.513447 5.907933 0.000000
-2.626095 5.911435 0.000000
-2.740522 5.914417 0.000000
-2.856844 5.916773 0.000000
-2.975612 5.918307 0.000000
-3.096930 5.918976 0.000000
-3.220985 5.918610 0.000000
-3.348134 5.917010 0.000000
-3.478716 5.914053 0.000000
-3.612806 5.909603 0.000000
-3.750805 5.903414 0.000000
-3.893199 5.895255 0.000000
-4.040149 5.885028 0.000000
-4.192150 5.872475 0.000000
-4.350010 5.857590 0.000000
-4.514301 5.840402 0.000000
-4.685356 5.821238 0.000000
-4.864225 5.800772 0.000000
-1.415358 6.031626 0.000000
-1.519212 6.024076 0.000000
-1.625201 6.018456 0.000000
-1.732879 6.014994 0.000000
-1.841194 6.013858 0.000000
-1.949822 6.014832 0.000000
-2.058006 6.017419 0.000000
-2.165875 6.020979 0.000000
-2.273854 6.025012 0.000000
-2.382065 6.029279 0.000000
-2.491311 6.033445 0.000000
-2.601612 6.037429 0.000000
-2.713546 6.041054 0.000000
-2.827211 6.044258 0.000000
-2.943018 6.046862 0.000000
-3.061227 6.048739 0.000000
-3.181959 6.049794 0.000000
-3.305454 6.049861 0.000000
-3.432088 6.048780 0.000000
-3.562059 6.046386 0.000000
-3.695462 6.042493 0.000000
-3.832832 6.036829 0.000000
-3.974397 6.029234 0.000000
-4.120484 6.019466 0.000000
-4.271856 6.007191 0.000000
-4.429023 5.992378 0.000000
-4.592610 5.974797 0.000000
-4.763498 5.954727 0.000000
-4.942902 5.932838 0.000000
-1.506074 6.154027 0.000000
-1.611646 6.146463 0.000000
-1.719137 6.141197 0.000000
-1.827549 6.138592 0.000000
-1.936062 6.138608 0.000000
-2.043788 6.140613 0.000000
-2.150615 6.143876 0.000000
-2.257248 6.147766 0.000000
-2.363840 6.152027 0.000000
-2.471175 6.156407 0.000000
-2.579396 6.160732 0.000000
-2.689059 6.164847 0.000000
-2.800386 6.168743 0.000000
-2.913486 6.172279 0.000000
-3.028875 6.175281 0.000000
-3.146614 6.177649 0.000000
-3.266848 6.179268 0.000000
-3.389952 6.179967 0.000000
-3.516156 6.179601 0.000000
-3.645494 6.177981 0.000000
-3.778312 6.174864 0.000000
-3.915109 6.170002 0.000000
-4.055996 6.163277 0.000000
-4.201241 6.154344 0.000000
-4.352034 6.142740 0.000000
-4.508358 6.128297 0.000000
-4.671243 6.110637 0.000000
-4.842030 6.089911 0.000000
-5.022164 6.066596 0.000000
-1.598054 6.274095 0.000000
-1.705416 6.266620 0.000000
-1.814247 6.262089 0.000000
-1.923027 6.260822 0.000000
-2.030591 6.262019 0.000000
-2.136656 6.264741 0.000000
-2.242023 6.268316 0.000000
-2.347211 6.272350 0.000000
-2.452814 6.276726 0.000000
-2.559233 6.281233 0.000000
-2.666762 6.285745 0.000000
-2.776001 6.290185 0.000000
-2.886740 6.294493 0.000000
-2.999562 6.298477 0.000000
-3.114598 6.302066 0.000000
-3.231949 6.305116 0.000000
-3.351848 6.307510 0.000000
-3.474680 6.309032 0.000000
-3.600441 6.309565 0.000000
-3.729261 6.308952 0.000000
-3.861676 6.306905 0.000000
-3.997991 6.303189 0.000000
-4.138132 6.297640 0.000000
-4.282906 6.289812 0.000000
-4.432890 6.279270 0.000000
-4.588298 6.265642 0.000000
-4.750720 6.248429 0.000000
-4.921414 6.227441 0.000000
-5.102326 6.202784 0.000000
-1.691406 6.391656 0.000000
-1.800842 6.384626 0.000000
-1.910439 6.381579 0.000000
-2.018181 6.381635 0.000000
-2.123671 6.383571 0.000000
-2.227953 6.386560 0.000000
-2.331845 6.390187 0.000000
-2.435981 6.394271 0.000000
-2.540761 6.398786 0.000000
-2.646414 6.403529 0.000000
-2.753756 6.408380 0.000000
-2.862452 6.413325 0.000000
-2.972918 6.418166 0.000000
-3.085572 6.422807 0.000000
-3.200326 6.427168 0.000000
-3.317450 6.431083 0.000000
-3.437157 6.434410 0.000000
-3.559722 6.436974 0.000000
-3.685140 6.438648 0.000000
-3.813653 6.439278 0.000000
-3.945802 6.438591 0.000000
-4.081636 6.436319 0.000000
-4.221192 6.432242 0.000000
-4.365582 6.425909 0.000000
-4.514765 6.416944 0.000000
-4.669620 6.404785 0.000000
-4.831580 6.388742 0.000000
-5.002135 6.368122 0.000000
-5.183901 6.342404 0.000000
-1.786820 6.506683 0.000000
-1.897932 6.501066 0.000000
-2.006197 6.499530 0.000000
-2.111343 6.500311 0.000000
-2.214731 6.502367 0.000000
-2.317495 6.505302 0.000000
-2.420241 6.508925 0.000000
-2.523682 6.513163 0.000000
-2.627778 6.517922 0.000000
-2.733309 6.523084 0.000000
-2.840283 6.528536 0.000000
-2.948679 6.534104 0.000000
-3.059152 6.539663 0.000000
-3.171640 6.545183 0.000000
-3.286262 6.550497 0.000000
-3.403231 6.555451 0.000000
-3.522922 6.559868 0.000000
-3.645239 6.563689 0.000000
-3.770440 6.566732 0.000000
-3.898917 6.568792 0.000000
-4.030811 6.569705 0.000000
-4.166124 6.569154 0.000000
-4.305626 6.566903 0.000000
-4.449631 6.562613 0.000000
-4.598345 6.555974 0.000000
-4.753101 6.546161 0.000000
-4.914659 6.532233 0.000000
-5.085062 6.513036 0.000000
-5.267749 6.487111 0.000000
-1.884852 6.619869 0.000000
-1.994221 6.615931 0.000000
-2.099306 6.614930 0.000000
-2.201917 6.615568 0.000000
-2.303750 6.617369 0.000000
-2.405369 6.620341 0.000000
-2.507690 6.624173 0.000000
-2.610444 6.628808 0.000000
-2.714461 6.634070 0.000000
-2.819969 6.639891 0.000000
-2.926537 6.646112 0.000000
-3.035024 6.652524 0.000000
-3.145555 6.659005 0.000000
-3.257945 6.665589 0.000000
-3.372528 6.672005 0.000000
-3.489523 6.678149 0.000000
-3.609184 6.683885 0.000000
-3.731471 6.689127 0.000000
-3.856574 6.693710 0.000000
-3.985129 6.697424 0.000000
-4.116803 6.700149 0.000000
-4.252013 6.701596 0.000000
-4.391627 6.701607 0.000000
-4.535672 6.699860 0.000000
-4.684515 6.696187 0.000000
-4.839236 6.689600 0.000000
-5.001005 6.679016 0.000000
-5.171767 6.663160 0.000000
-5.356021 6.639397 0.000000
TENSORS STRESS float
7.678563 5.184008 0.000000
5.184008 7.675648 0.000000
0.000000 0.000000 0.000000
-24777.090185 5.212097 0.000000
5.212097 -24774.221230 0.000000
0.000000 0.000000 0.000000
-85754.341615 1.105177 0.000000
1.105177 -85749.574229 0.000000
0.000000 0.000000 0.000000
1359.871303 7.246132 0.000000
7.246132 1359.508770 0.000000
0.000000 0.000000 0.000000
0.935296 5.186087 0.000000
5.186087 0.867396 0.000000
0.000000 0.000000 0.000000
-19.852561 5.119614 0.000000
5.119614 -20.024883 0.000000
0.000000 0.000000 0.000000
13.075113 4.923598 0.000000
4.923598 12.728074 0.000000
0.000000 0.000000 0.000000
24.138808 4.774862 0.000000
4.774862 23.660083 0.000000
0.000000 0.000000 0.000000
39.856056 4.696289 0.000000
4.696289 39.307247 0.000000
0.000000 0.000000 0.000000
96.574345 4.762449 0.000000
4.762449 95.928080 0.000000
0.000000 0.000000 0.000000
156.262864 4.959772 0.000000
4.959772 155.531953 0.000000
0.000000 0.000000 0.000000
234.618183 5.234800 0.000000
5.234800 233.811271 0.000000
0.000000 0.000000 0.000000
314.583511 5.595025 0.000000
5.595025 313.703034 0.000000
0.000000 0.000000 0.000000
401.424496 6.000191 0.000000
6.000191 400.485295 0.000000
0.000000 0.000000 0.000000
487.570483 6.464807 0.000000
6.464807 486.586000 0.000000
0.000000 0.000000 0.000000
576.643381 6.943346 0.000000
6.943346 575.643034 0.000000
0.000000 0.000000 0.000000
656.954329 7.442637 0.000000
7.442637 655.954084 0.000000
0.000000 0.000000 0.000000
729.749576 7.937266 0.000000
7.937266 728.742513 0.000000
0.000000 0.000000 0.000000
781.368127 8.414095 0.000000
8.414095 780.367392 0.000000
0.000000 0.000000 0.000000
812.214119 8.859238 0.000000
8.859238 811.235618 0.000000
0.000000 0.000000 0.000000
811.091122 9.268570 0.000000
9.268570 810.154878 0.000000
0.000000 0.000000 0.000000
778.951584 9.648758 0.000000
9.648758 778.072553 0.000000
0.000000 0.000000 0.000000
707.480948 9.982478 0.000000
9.982478 706.667947 0.000000
0.000000 0.000000 0.000000
599.508680 10.290289 0.000000
10.290289 598.794564 0.000000
0.000000 0.000000 0.000000
448.252647 10.554731 0.000000
10.554731 447.618659 0.000000
0.000000 0.000000 0.000000
256.456724 10.781776 0.000000
10.781776 255.940534 0.000000
0.000000 0.000000 0.000000
26.503341 10.981009 0.000000
10.981009 26.096414 0.000000
0.000000 0.000000 0.000000
-249.491482 11.142185 0.000000
11.142185 -249.775524 0.000000
0.000000 0.000000 0.000000
-557.672152 11.279506 0.000000
11.279506 -557.825230 0.000000
0.000000 0.000000 0.000000
-905.198548 11.392443 0.000000
11.392443 -905.216784 0.000000
0.000000 0.000000 0.000000
-1289.140464 11.479291 0.000000
11.479291 -1289.038066 0.000000
0.000000 0.000000 0.000000
-1707.203002 11.540765 0.000000
11.540765 -1706.972230 0.000000
0.000000 0.000000 0.000000
-2152.190774 11.591029 0.000000
11.591029 -2151.824819 0.000000
0.000000 0.000000 0.000000
-2622.964377 11.622161 0.000000
11.622161 -2622.459937 0.000000
0.000000 0.000000 0.000000
-3124.797260 11.636435 0.000000
11.636435 -3124.155103 0.000000
0.000000 0.000000 0.000000
-3652.234481 11.636418 0.000000
11.636418 -3651.468073 0.000000
0.000000 0.000000 0.000000
-4203.377841 11.625854 0.000000
11.625854 -4202.484782 0.000000
0.000000 0.000000 0.000000
-4772.435209 11.604205 0.000000
11.604205 -4771.408981 0.000000
0.000000 0.000000 0.000000
-5362.339317 11.573941 0.000000
11.573941 -5361.183504 0.000000
0.000000 0.000000 0.000000
-5975.158401 11.531195 0.000000
11.531195 -5973.884346 0.000000
0.000000 0.000000 0.000000
-6609.344093 11.478238 0.000000
11.478238 -6607.966303 0.000000
0.000000 0.000000 0.000000
-7260.206489 11.420646 0.000000
11.420646 -7258.714597 0.000000
0.000000 0.000000 0.000000
-7920.727452 11.350378 0.000000
11.350378 -7919.124371 0.000000
0.000000 0.000000 0.000000
-8593.678639 11.269254 0.000000
11.269254 -8591.961612 0.000000
0.000000 0.000000 0.000000
-9291.678385 11.183428 0.000000
11.183428 -9289.858199 0.000000
0.000000 0.000000 0.000000
-10004.592445 11.087963 0.000000
11.087963 -10002.692025 0.000000
0.000000 0.000000 0.000000
-10729.593340 10.977381 0.000000
10.977381 -10727.607115 0.000000
0.000000 0.000000 0.000000
-11461.546334 10.857191 0.000000
10.857191 -11459.469829 0.000000
0.000000 0.000000 0.000000
-12194.307306 10.730003 0.000000
10.730003 -12192.139746 0.000000
0.000000 0.000000 0.000000
-12957.543347 10.576768 0.000000
10.576768 -12955.309454 0.000000
0.000000 0.000000 0.000000
-13713.885495 10.428332 0.000000
10.428332 -13711.567353 0.000000
0.000000 0.000000 0.000000
-14494.968254 10.253773 0.000000
10.253773 -14492.631689 0.000000
0.000000 0.000000 0.000000
-15289.339697 10.054630 0.000000
10.054630 -15286.956924 0.000000
0.000000 0.000000 0.000000
-16067.476005 9.839258 0.000000
9.839258 -16065.023545 0.000000
0.000000 0.000000 0.000000
-16834.086289 9.610675 0.000000
9.610675 -16831.639771 0.000000
0.000000 0.000000 0.000000
-17686.211971 9.353492 0.000000
9.353492 -17683.758059 0.000000
0.000000 0.000000 0.000000
-18501.622163 9.064832 0.000000
9.064832 -18499.193664 0.000000
0.000000 0.000000 0.000000
-19241.961486 8.713799 0.000000
8.713799 -19239.557749 0.000000
0.000000 0.000000 0.000000
-20005.425895 8.304518 0.000000
8.304518 -20002.910202 0.000000
0.000000 0.000000 0.000000
-20787.320501 7.944376 0.000000
7.944376 -20784.807910 0.000000
0.000000 0.000000 0.000000
-21731.695355 7.488684 0.000000
7.488684 -21729.550160 0.000000
0.000000 0.000000 0.000000
-22772.186297 6.861100 0.000000
6.861100 -22770.406348 0.000000
0.000000 0.000000 0.000000
-24060.009838 5.917870 0.000000
5.917870 -24058.005046 0.000000
0.000000 0.000000 0.000000
-22303.454519 5.670302 0.000000
5.670302 -22297.654732 0.000000
0.000000 0.000000 0.000000
-20762.146459 5.853056 0.000000
5.853056 -20755.395553 0.000000
0.000000 0.000000 0.000000
-19882.310338 5.703601 0.000000
5.703601 -19874.826336 0.000000
0.000000 0.000000 0.000000
-19518.641939 5.391808 0.000000
5.391808 -19510.293926 0.000000
0.000000 0.000000 0.000000
-19293.797666 5.294490 0.000000
5.294490 -19284.351722 0.000000
0.000000 0.000000 0.000000
-19406.053957 5.261480 0.000000
5.261480 -19395.827029 0.000000
0.000000 0.000000 0.000000
-19503.503016 5.309752 0.000000
5.309752 -19492.712942 0.000000
0.000000 0.000000 0.000000
-19879.686090 5.166260 0.000000
5.166260 -19868.326128 0.000000
0.000000 0.000000 0.000000
-20167.326325 5.110543 0.000000
5.110543 -20155.414733 0.000000
0.000000 0.000000 0.000000
-20478.236746 5.093392 0.000000
5.093392 -20465.827956 0.000000
0.000000 0.000000 0.000000
-21038.897663 5.001752 0.000000
5.001752 -21026.052350 0.000000
0.000000 0.000000 0.000000
-21635.339376 4.932190 0.000000
4.932190 -21622.194014 0.000000
0.000000 0.000000 0.000000
-22184.960616 4.912838 0.000000
4.912838 -22171.382130 0.000000
0.000000 0.000000 0.000000
-22910.955249 4.843193 0.000000
4.843193 -22897.188887 0.000000
0.000000 0.000000 0.000000
-23707.304952 4.763621 0.000000
4.763621 -23693.268731 0.000000
0.000000 0.000000 0.000000
-24569.159992 4.728465 0.000000
4.728465 -24554.858764 0.000000
0.000000 0.000000 0.000000
-25541.825109 4.669715 0.000000
4.669715 -25527.388583 0.000000
0.000000 0.000000 0.000000
-26544.903833 4.655944 0.000000
4.655944 -26530.369817 0.000000
0.000000 0.000000 0.000000
-27802.337518 4.517509 0.000000
4.517509 -27787.738217 0.000000
0.000000 0.000000 0.000000
-28982.252577 4.492098 0.000000
4.492098 -28967.513346 0.000000
0.000000 0.000000 0.000000
-30447.053462 4.478497 0.000000
4.478497 -30432.283269 0.000000
0.000000 0.000000 0.000000
-32251.203932 4.397636 0.000000
4.397636 -32236.380754 0.000000
0.000000 0.000000 0.000000
-34093.882693 4.339163 0.000000
4.339163 -34079.220807 0.000000
0.000000 0.000000 0.000000
-36059.406479 4.183153 0.000000
4.183153 -36044.931656 0.000000
0.000000 0.000000 0.000000
-38406.302912 3.932786 0.000000
3.932786 -38391.998761 0.000000
0.000000 0.000000 0.000000
-41640.026918 3.824729 0.000000
3.824729 -41625.671164 0.000000
0.000000 0.000000 0.000000
-46520.479945 3.959104 0.000000
3.959104 -46505.847580 0.000000
0.000000 0.000000 0.000000
-54036.576482 4.374374 0.000000
4.374374 -54021.889141 0.000000
0.000000 0.000000 0.000000
-65367.436596 4.542920 0.000000
4.542920 -65354.749310 0.000000
0.000000 0.000000 0.000000
-69449.315126 -1.919786 0.000000
-1.919786 -69448.109081 0.000000
0.000000 0.000000 0.000000
-58316.001828 -3.152376 0.000000
-3.152376 -58314.312681 0.000000
0.000000 0.000000 0.000000
-50552.910030 -3.290007 0.000000
-3.290007 -50549.627745 0.000000
0.000000 0.000000 0.000000
-45111.451533 -2.961629 0.000000
-2.961629 -45106.968996 0.000000
0.000000 0.000000 0.000000
-41326.316783 -2.716948 0.000000
-2.716948 -41321.483884 0.000000
0.000000 0.000000 0.000000
-38850.818216 -2.768152 0.000000
-2.768152 -38846.211184 0.000000
0.000000 0.000000 0.000000
-37008.833446 -3.034272 0.000000
-3.034272 -37004.536081 0.000000
0.000000 0.000000 0.000000
-35389.769333 -3.204087 0.000000
-3.204087 -35385.406721 0.000000
0.000000 0.000000 0.000000
-33683.927258 -3.177662 0.000000
-3.177662 -33679.366448 0.000000
0.000000 0.000000 0.000000
-32000.043897 -3.201417 0.000000
-3.201417 -31995.340018 0.000000
0.000000 0.000000 0.000000
-30664.210979 -3.204514 0.000000
-3.204514 -30659.300219 0.000000
0.000000 0.000000 0.000000
-29516.563489 -3.276136 0.000000
-3.276136 -29511.523665 0.000000
0.000000 0.000000 0.000000
-28489.471041 -3.360824 0.000000
-3.360824 -28484.225227 0.000000
0.000000 0.000000 0.000000
-27488.607212 -3.425723 0.000000
-3.425723 -27483.247007 0.000000
0.000000 0.000000 0.000000
-26535.994057 -3.533213 0.000000
-3.533213 -26530.457787 0.000000
0.000000 0.000000 0.000000
-25648.476777 -3.634046 0.000000
-3.634046 -25642.674611 0.000000
0.000000 0.000000 0.000000
-24767.637247 -3.738527 0.000000
-3.738527 -24761.608717 0.000000
0.000000 0.000000 0.000000
-23951.400139 -3.857169 0.000000
-3.857169 -23945.109649 0.000000
0.000000 0.000000 0.000000
-23146.031429 -3.984698 0.000000
-3.984698 -23139.487900 0.000000
0.000000 0.000000 0.000000
-22341.292635 -4.121775 0.000000
-4.121775 -22334.501956 0.000000
0.000000 0.000000 0.000000
-21557.357089 -4.268135 0.000000
-4.268135 -21550.268868 0.000000
0.000000 0.000000 0.000000
-20766.209957 -4.401683 0.000000
-4.401683 -20758.810170 0.000000
0.000000 0.000000 0.000000
-19966.190877 -4.546221 0.000000
-4.546221 -19958.498512 0.000000
0.000000 0.000000 0.000000
-19184.150018 -4.692706 0.000000
-4.692706 -19176.143334 0.000000
0.000000 0.000000 0.000000
-18395.614258 -4.823886 0.000000
-4.823886 -18387.294909 0.000000
0.000000 0.000000 0.000000
-17603.449197 -4.971114 0.000000
-4.971114 -17594.838345 0.000000
0.000000 0.000000 0.000000
-16797.613523 -5.115457 0.000000
-5.115457 -16788.666110 0.000000
0.000000 0.000000 0.000000
-16006.878638 -5.225234 0.000000
-5.225234 -15997.611581 0.000000
0.000000 0.000000 0.000000
-15218.922766 -5.351260 0.000000
-5.351260 -15209.382532 0.000000
0.000000 0.000000 0.000000
-14424.247498 -5.486159 0.000000
-5.486159 -14414.391548 0.000000
0.000000 0.000000 0.000000
-13644.964419 -5.583639 0.000000
-5.583639 -13634.804093 0.000000
0.000000 0.000000 0.000000
-12864.254226 -5.683774 0.000000
-5.683774 -12853.827063 0.000000
0.000000 0.000000 0.000000
-12098.198521 -5.782761 0.000000
-5.782761 -12087.496282 0.000000
0.000000 0.000000 0.000000
-11345.520144 -5.870823 0.000000
-5.870823 -11334.545743 0.000000
0.000000 0.000000 0.000000
-10598.646597 -5.945960 0.000000
-5.945960 -10587.413181 0.000000
0.000000 0.000000 0.000000
-9873.053528 -6.011991 0.000000
-6.011991 -9861.569976 0.000000
0.000000 0.000000 0.000000
-9154.008749 -6.074531 0.000000
-6.074531 -9142.286059 0.000000
0.000000 0.000000 0.000000
-8462.832853 -6.128459 0.000000
-6.128459 -8450.877957 0.000000
0.000000 0.000000 0.000000
-7800.606910 -6.171680 0.000000
-6.171680 -7788.440438 0.000000
0.000000 0.000000 0.000000
-7153.702316 -6.213694 0.000000
-6.213694 -7141.320853 0.000000
0.000000 0.000000 0.000000
-6514.744714 -6.256362 0.000000
-6.256362 -6502.144804 0.000000
0.000000 0.000000 0.000000
-5921.453331 -6.272756 0.000000
-6.272756 -5908.664756 0.000000
0.000000 0.000000 0.000000
-5334.565876 -6.312413 0.000000
-6.312413 -5321.569744 0.000000
0.000000 0.000000 0.000000
-4778.467264 -6.329196 0.000000
-6.329196 -4765.283017 0.000000
0.000000 0.000000 0.000000
-4276.140492 -6.350096 0.000000
-6.350096 -4262.794216 0.000000
0.000000 0.000000 0.000000
-3739.919690 -6.414290 0.000000
-6.414290 -3726.323140 0.000000
0.000000 0.000000 0.000000
-3301.279880 -6.368114 0.000000
-6.368114 -3287.515225 0.000000
0.000000 0.000000 0.000000
-2837.829831 -6.481737 0.000000
-6.481737 -2823.871711 0.000000
0.000000 0.000000 0.000000
-2400.379752 -6.490182 0.000000
-6.490182 -2386.071660 0.000000
0.000000 0.000000 0.000000
-2051.754840 -6.515399 0.000000
-6.515399 -2037.353223 0.000000
0.000000 0.000000 0.000000
-1526.149586 -6.756169 0.000000
-6.756169 -1511.137157 0.000000
0.000000 0.000000 0.000000
-1281.494949 -6.635758 0.000000
-6.635758 -1266.303743 0.000000
0.000000 0.000000 0.000000
-911.383367 -6.996656 0.000000
-6.996656 -895.793158 0.000000
0.000000 0.000000 0.000000
-327.933065 -7.259454 0.000000
-7.259454 -310.577632 0.000000
0.000000 0.000000 0.000000
125.202313 -7.389272 0.000000
-7.389272 143.305892 0.000000
0.000000 0.000000 0.000000
639.603611 -8.246580 0.000000
-8.246580 661.092540 0.000000
0.000000 0.000000 0.000000
2293.001176 -7.262642 0.000000
-7.262642 2322.101018 0.000000
0.000000 0.000000 0.000000
1970.732821 -2.342412 0.000000
-2.342412 1999.602038 0.000000
0.000000 0.000000 0.000000
252.495687 4.344600 0.000000
4.344600 267.463238 0.000000
0.000000 0.000000 0.000000
-1041.307138 4.620714 0.000000
4.620714 -1040.910448 0.000000
0.000000 0.000000 0.000000
-330.510460 1.882531 0.000000
1.882531 -330.384495 0.000000
0.000000 0.000000 0.000000
-317.460432 0.055210 0.000000
0.055210 -317.307270 0.000000
0.000000 0.000000 0.000000
-290.567265 -1.260108 0.000000
-1.260108 -290.436747 0.000000
0.000000 0.000000 0.000000
-3.471478 -2.104323 0.000000
-2.104323 -3.465388 0.000000
0.000000 0.000000 0.000000
85.710183 -2.205956 0.000000
-2.205956 85.690492 0.000000
0.000000 0.000000 0.000000
85.317408 -1.883776 0.000000
-1.883776 85.293326 0.000000
0.000000 0.000000 0.000000
45.337994 -1.570511 0.000000
-1.570511 45.316737 0.000000
0.000000 0.000000 0.000000
25.383050 -1.207545 0.000000
-1.207545 25.371458 0.000000
0.000000 0.000000 0.000000
67.889053 -0.666262 0.000000
-0.666262 67.865146 0.000000
0.000000 0.000000 0.000000
49.862639 -0.108815 0.000000
-0.108815 49.841690 0.000000
0.000000 0.000000 0.000000
-5.085491 0.363278 0.000000
0.363278 -5.086765 0.000000
0.000000 0.000000 0.000000
25.174006 0.867661 0.000000
0.867661 25.163584 0.000000
0.000000 0.000000 0.000000
59.550834 1.437608 0.000000
1.437608 59.527480 0.000000
0.000000 0.000000 0.000000
22.344979 1.969390 0.000000
1.969390 22.335376 0.000000
0.000000 0.000000 0.000000
9.478792 2.449624 0.000000
2.449624 9.474697 0.000000
0.000000 0.000000 0.000000
40.520514 2.937268 0.000000
2.937268 40.504718 0.000000
0.000000 0.000000 0.000000
31.967420 3.405848 0.000000
3.405848 31.955010 0.000000
0.000000 0.000000 0.000000
3.636597 3.799379 0.000000
3.799379 3.635633 0.000000
0.000000 0.000000 0.000000
11.146465 4.133442 0.000000
4.133442 11.142546 0.000000
0.000000 0.000000 0.000000
16.340019 4.427932 0.000000
4.427932 16.333626 0.000000
0.000000 0.000000 0.000000
-2.928714 4.656895 0.000000
4.656895 -2.927496 0.000000
0.000000 0.000000 0.000000
-4.035539 4.816635 0.000000
4.816635 -4.033755 0.000000
0.000000 0.000000 0.000000
9.830307 4.938193 0.000000
4.938193 9.826276 0.000000
0.000000 0.000000 0.000000
7.502355 5.030143 0.000000
5.030143 7.499107 0.000000
0.000000 0.000000 0.000000
1.502131 5.084587 0.000000
5.084587 1.501667 0.000000
0.000000 0.000000 0.000000
5.813736 5.114079 0.000000
5.114079 5.811696 0.000000
0.000000 0.000000 0.000000
11.443811 5.138627 0.000000
5.138627 11.439251 0.000000
0.000000 0.000000 0.000000
11.572642 5.162046 0.000000
5.162046 11.567973 0.000000
0.000000 0.000000 0.000000
9.474781 5.175848 0.000000
5.175848 9.406426 0.000000
0.000000 0.000000 0.000000
4.478542 5.156523 0.000000
5.156523 4.389321 0.000000
0.000000 0.000000 0.000000
9.496239 5.132176 0.000000
5.132176 9.365429 0.000000
0.000000 0.000000 0.000000
11.532726 5.095553 0.000000
5.095553 11.307959 0.000000
0.000000 0.000000 0.000000
11.423083 5.027325 0.000000
5.027325 11.073311 0.000000
0.000000 0.000000 0.000000
13.900250 4.923391 0.000000
4.923391 13.416231 0.000000
0.000000 0.000000 0.000000
18.227232 4.777848 0.000000
4.777848 17.563374 0.000000
0.000000 0.000000 0.000000
19.352004 4.576347 0.000000
4.576347 18.465419 0.000000
0.000000 0.000000 0.000000
18.007920 4.316850 0.000000
4.316850 16.918293 0.000000
0.000000 0.000000 0.000000
20.711227 4.012686 0.000000
4.012686 19.451529 0.000000
0.000000 0.000000 0.000000
22.885530 3.668060 0.000000
3.668060 21.430967 0.000000
0.000000 0.000000 0.000000
19.572534 3.271740 0.000000
3.271740 17.925437 0.000000
0.000000 0.000000 0.000000
17.694063 2.833965 0.000000
2.833965 15.961530 0.000000
0.000000 0.000000 0.000000
19.031890 2.391532 0.000000
2.391532 17.276136 0.000000
0.000000 0.000000 0.000000
17.401720 1.946129 0.000000
1.946129 15.542480 0.000000
0.000000 0.000000 0.000000
16.041153 1.462685 0.000000
1.462685 14.092477 0.000000
0.000000 0.000000 0.000000
15.179500 0.966734 0.000000
0.966734 13.346039 0.000000
0.000000 0.000000 0.000000
10.880324 0.531917 0.000000
0.531917 9.175703 0.000000
0.000000 0.000000 0.000000
11.551274 0.122168 0.000000
0.122168 9.724193 0.000000
0.000000 0.000000 0.000000
18.455544 -0.353375 0.000000
-0.353375 16.633484 0.000000
0.000000 0.000000 0.000000
15.640506 -0.776599 0.000000
-0.776599 14.309662 0.000000
0.000000 0.000000 0.000000
6.778249 -1.003430 0.000000
-1.003430 5.817135 0.000000
0.000000 0.000000 0.000000
13.880135 -1.198184 0.000000
-1.198184 13.016760 0.000000
0.000000 0.000000 0.000000
29.701290 -1.402761 0.000000
-1.402761 29.909996 0.000000
0.000000 0.000000 0.000000
56.112024 -1.170651 0.000000
-1.170651 58.453470 0.000000
0.000000 0.000000 0.000000
90.463910 -0.408485 0.000000
-0.408485 94.245281 0.000000
0.000000 0.000000 0.000000
61.542412 0.418095 0.000000
0.418095 66.771961 0.000000
0.000000 0.000000 0.000000
270.394911 1.722828 0.000000
1.722828 278.109767 0.000000
0.000000 0.000000 0.000000
378.459914 3.604426 0.000000
3.604426 386.919677 0.000000
0.000000 0.000000 0.000000
9.569636 5.085796 0.000000
5.085796 9.367010 0.000000
0.000000 0.000000 0.000000
13.821494 5.055650 0.000000
5.055650 13.565561 0.000000
0.000000 0.000000 0.000000
21.136881 5.046255 0.000000
5.046255 20.783592 0.000000
0.000000 0.000000 0.000000
28.124779 5.021154 0.000000
5.021154 27.556691 0.000000
0.000000 0.000000 0.000000
30.201895 4.953701 0.000000
4.953701 29.331667 0.000000
0.000000 0.000000 0.000000
37.399334 4.844715 0.000000
4.844715 36.167371 0.000000
0.000000 0.000000 0.000000
45.075732 4.680934 0.000000
4.680934 43.489089 0.000000
0.000000 0.000000 0.000000
46.964169 4.474085 0.000000
4.474085 45.031531 0.000000
0.000000 0.000000 0.000000
50.270211 4.228499 0.000000
4.228499 47.954080 0.000000
0.000000 0.000000 0.000000
57.876217 3.946763 0.000000
3.946763 55.234183 0.000000
0.000000 0.000000 0.000000
61.912240 3.642121 0.000000
3.642121 59.038465 0.000000
0.000000 0.000000 0.000000
57.961455 3.308949 0.000000
3.308949 54.853413 0.000000
0.000000 0.000000 0.000000
57.781503 2.949416 0.000000
2.949416 54.471166 0.000000
0.000000 0.000000 0.000000
64.252767 2.598851 0.000000
2.598851 60.889087 0.000000
0.000000 0.000000 0.000000
62.769978 2.257502 0.000000
2.257502 59.404786 0.000000
0.000000 0.000000 0.000000
54.572687 1.884248 0.000000
1.884248 51.139999 0.000000
0.000000 0.000000 0.000000
53.371026 1.509202 0.000000
1.509202 49.990571 0.000000
0.000000 0.000000 0.000000
54.465894 1.228325 0.000000
1.228325 51.348384 0.000000
0.000000 0.000000 0.000000
47.648547 0.983921 0.000000
0.983921 44.712428 0.000000
0.000000 0.000000 0.000000
35.897175 0.661244 0.000000
0.661244 33.153431 0.000000
0.000000 0.000000 0.000000
22.790552 0.438563 0.000000
0.438563 20.705180 0.000000
0.000000 0.000000 0.000000
0.077169 0.449181 0.000000
0.449181 -1.022555 0.000000
0.000000 0.000000 0.000000
-21.456972 0.377585 0.000000
0.377585 -21.555930 0.000000
0.000000 0.000000 0.000000
-66.517499 0.099408 0.000000
0.099408 -64.859168 0.000000
0.000000 0.000000 0.000000
-53.208553 0.263982 0.000000
0.263982 -49.127323 0.000000
0.000000 0.000000 0.000000
48.659968 0.405687 0.000000
0.405687 54.781398 0.000000
0.000000 0.000000 0.000000
130.463012 0.095697 0.000000
0.095697 139.352370 0.000000
0.000000 0.000000 0.000000
222.156574 0.739204 0.000000
0.739204 233.097306 0.000000
0.000000 0.000000 0.000000
918.720067 0.112144 0.000000
0.112144 936.153629 0.000000
0.000000 0.000000 0.000000
16.032490 4.891356 0.000000
4.891356 15.646578 0.000000
0.000000 0.000000 0.000000
31.522204 4.905348 0.000000
4.905348 31.083307 0.000000
0.000000 0.000000 0.000000
50.073967 4.931804 0.000000
4.931804 49.402728 0.000000
0.000000 0.000000 0.000000
59.955047 4.910373 0.000000
4.910373 58.851311 0.000000
0.000000 0.000000 0.000000
68.976959 4.857181 0.000000
4.857181 67.393242 0.000000
0.000000 0.000000 0.000000
75.402774 4.758728 0.000000
4.758728 73.337624 0.000000
0.000000 0.000000 0.000000
81.761065 4.610354 0.000000
4.610354 79.230712 0.000000
0.000000 0.000000 0.000000
90.864526 4.435245 0.000000
4.435245 87.852853 0.000000
0.000000 0.000000 0.000000
92.535383 4.224555 0.000000
4.224555 89.079788 0.000000
0.000000 0.000000 0.000000
92.123346 3.987527 0.000000
3.987527 88.364243 0.000000
0.000000 0.000000 0.000000
96.529375 3.731288 0.000000
3.731288 92.508721 0.000000
0.000000 0.000000 0.000000
94.706391 3.453893 0.000000
3.453893 90.392926 0.000000
0.000000 0.000000 0.000000
86.037640 3.178580 0.000000
3.178580 81.550903 0.000000
0.000000 0.000000 0.000000
85.615918 2.914782 0.000000
2.914782 81.174817 0.000000
0.000000 0.000000 0.000000
84.853490 2.640286 0.000000
2.640286 80.474911 0.000000
0.000000 0.000000 0.000000
68.361278 2.360251 0.000000
2.360251 63.928756 0.000000
0.000000 0.000000 0.000000
52.384393 2.134706 0.000000
2.134706 48.119371 0.000000
0.000000 0.000000 0.000000
49.675031 1.975108 0.000000
1.975108 46.007803 0.000000
0.000000 0.000000 0.000000
26.930398 1.767915 0.000000
1.767915 23.811023 0.000000
0.000000 0.000000 0.000000
-19.266193 1.547848 0.000000
1.547848 -22.087780 0.000000
0.000000 0.000000 0.000000
-49.620282 1.446411 0.000000
1.446411 -51.443201 0.000000
0.000000 0.000000 0.000000
-45.658658 1.413706 0.000000
1.413706 -45.657562 0.000000
0.000000 0.000000 0.000000
-94.469279 1.040518 0.000000
1.040518 -93.263707 0.000000
0.000000 0.000000 0.000000
-153.388742 0.647688 0.000000
0.647688 -151.024507 0.000000
0.000000 0.000000 0.000000
-55.180139 0.876877 0.000000
0.876877 -50.728373 0.000000
0.000000 0.000000 0.000000
29.789767 0.527679 0.000000
0.527679 36.803117 0.000000
0.000000 0.000000 0.000000
70.509793 0.483425 0.000000
0.483425 79.768377 0.000000
0.000000 0.000000 0.000000
446.617293 0.365051 0.000000
0.365051 461.707041 0.000000
0.000000 0.000000 0.000000
1200.074414 -2.793703 0.000000
-2.793703 1223.700528 0.000000
0.000000 0.000000 0.000000
31.351507 4.818444 0.000000
4.818444 30.826706 0.000000
0.000000 0.000000 0.000000
65.917296 4.904268 0.000000
4.904268 65.163377 0.000000
0.000000 0.000000 0.000000
88.311276 4.945570 0.000000
4.945570 87.116011 0.000000
0.000000 0.000000 0.000000
99.862205 4.934347 0.000000
4.934347 98.134665 0.000000
0.000000 0.000000 0.000000
111.981331 4.889238 0.000000
4.889238 109.690628 0.000000
0.000000 0.000000 0.000000
117.802774 4.793745 0.000000
4.793745 114.892907 0.000000
0.000000 0.000000 0.000000
126.843462 4.671693 0.000000
4.671693 123.383118 0.000000
0.000000 0.000000 0.000000
132.310086 4.514811 0.000000
4.514811 128.387377 0.000000
0.000000 0.000000 0.000000
129.349549 4.320627 0.000000
4.320627 124.974866 0.000000
0.000000 0.000000 0.000000
128.771964 4.118498 0.000000
4.118498 124.008541 0.000000
0.000000 0.000000 0.000000
128.947083 3.899011 0.000000
3.899011 123.940594 0.000000
0.000000 0.000000 0.000000
123.373402 3.662451 0.000000
3.662451 118.211207 0.000000
0.000000 0.000000 0.000000
109.962970 3.433878 0.000000
3.433878 104.663514 0.000000
0.000000 0.000000 0.000000
97.242890 3.219540 0.000000
3.219540 91.942878 0.000000
0.000000 0.000000 0.000000
88.387357 2.995122 0.000000
2.995122 83.292199 0.000000
0.000000 0.000000 0.000000
67.498268 2.769037 0.000000
2.769037 62.677398 0.000000
0.000000 0.000000 0.000000
33.315450 2.609075 0.000000
2.609075 28.775015 0.000000
0.000000 0.000000 0.000000
-1.758200 2.445532 0.000000
2.445532 -5.722540 0.000000
0.000000 0.000000 0.000000
-28.107880 2.219253 0.000000
2.219253 -31.140505 0.000000
0.000000 0.000000 0.000000
-76.863044 1.997177 0.000000
1.997177 -79.050348 0.000000
0.000000 0.000000 0.000000
-147.174162 1.818735 0.000000
1.818735 -148.402647 0.000000
0.000000 0.000000 0.000000
-182.414414 1.605623 0.000000
1.605623 -182.092170 0.000000
0.000000 0.000000 0.000000
-215.917337 1.101046 0.000000
1.101046 -213.976792 0.000000
0.000000 0.000000 0.000000
-224.724347 0.955431 0.000000
0.955431 -221.454726 0.000000
0.000000 0.000000 0.000000
-184.874640 1.064044 0.000000
1.064044 -178.956903 0.000000
0.000000 0.000000 0.000000
-59.840533 0.894203 0.000000
0.894203 -51.304507 0.000000
0.000000 0.000000 0.000000
276.718103 0.612952 0.000000
0.612952 290.308153 0.000000
0.000000 0.000000 0.000000
422.411318 -1.025308 0.000000
-1.025308 441.047623 0.000000
0.000000 0.000000 0.000000
361.642060 -4.842239 0.000000
-4.842239 382.705368 0.000000
0.000000 0.000000 0.000000
78.978632 4.851102 0.000000
4.851102 78.207981 0.000000
0.000000 0.000000 0.000000
119.035095 4.973419 0.000000
4.973419 117.862029 0.000000
0.000000 0.000000 0.000000
135.093732 5.019528 0.000000
5.019528 133.355554 0.000000
0.000000 0.000000 0.000000
149.002613 5.024560 0.000000
5.024560 146.617318 0.000000
0.000000 0.000000 0.000000
163.683097 4.982814 0.000000
4.982814 160.647758 0.000000
0.000000 0.000000 0.000000
170.526176 4.903042 0.000000
4.903042 166.867798 0.000000
0.000000 0.000000 0.000000
174.614283 4.793159 0.000000
4.793159 170.394278 0.000000
0.000000 0.000000 0.000000
176.602151 4.643982 0.000000
4.643982 171.880266 0.000000
0.000000 0.000000 0.000000
176.832824 4.486729 0.000000
4.486729 171.691825 0.000000
0.000000 0.000000 0.000000
171.014827 4.325309 0.000000
4.325309 165.568302 0.000000
0.000000 0.000000 0.000000
156.370733 4.137421 0.000000
4.137421 150.700500 0.000000
0.000000 0.000000 0.000000
144.520370 3.939589 0.000000
3.939589 138.716462 0.000000
0.000000 0.000000 0.000000
131.648746 3.765067 0.000000
3.765067 125.849571 0.000000
0.000000 0.000000 0.000000
104.474188 3.606460 0.000000
3.606460 98.820689 0.000000
0.000000 0.000000 0.000000
65.433652 3.410440 0.000000
3.410440 60.050225 0.000000
0.000000 0.000000 0.000000
34.345100 3.218862 0.000000
3.218862 29.359601 0.000000
0.000000 0.000000 0.000000
-1.392217 3.083286 0.000000
3.083286 -5.809594 0.000000
0.000000 0.000000 0.000000
-63.279081 2.935310 0.000000
2.935310 -66.905631 0.000000
0.000000 0.000000 0.000000
-136.800079 2.716276 0.000000
2.716276 -139.423501 0.000000
0.000000 0.000000 0.000000
-202.282929 2.464808 0.000000
2.464808 -203.849328 0.000000
0.000000 0.000000 0.000000
-257.699585 2.320659 0.000000
2.320659 -258.142259 0.000000
0.000000 0.000000 0.000000
-345.493343 2.083022 0.000000
2.083022 -344.107990 0.000000
0.000000 0.000000 0.000000
-428.337666 1.800803 0.000000
1.800803 -425.647427 0.000000
0.000000 0.000000 0.000000
-480.226390 1.468433 0.000000
1.468433 -475.698656 0.000000
0.000000 0.000000 0.000000
-345.575045 1.343717 0.000000
1.343717 -338.250737 0.000000
0.000000 0.000000 0.000000
-362.832543 0.405132 0.000000
0.405132 -352.330443 0.000000
0.000000 0.000000 0.000000
-61.360612 -0.934125 0.000000
-0.934125 -46.877393 0.000000
0.000000 0.000000 0.000000
276.171615 -3.347673 0.000000
-3.347673 294.051718 0.000000
0.000000 0.000000 0.000000
143.487683 -6.000295 0.000000
-6.000295 162.353583 0.000000
0.000000 0.000000 0.000000
136.333865 4.973689 0.000000
4.973689 135.295042 0.000000
0.000000 0.000000 0.000000
171.019320 5.107609 0.000000
5.107609 169.429102 0.000000
0.000000 0.000000 0.000000
191.593803 5.183657 0.000000
5.183657 189.325652 0.000000
0.000000 0.000000 0.000000
205.148123 5.208251 0.000000
5.208251 202.173083 0.000000
0.000000 0.000000 0.000000
214.496275 5.171377 0.000000
5.171377 210.833715 0.000000
0.000000 0.000000 0.000000
220.570719 5.100512 0.000000
5.100512 216.272624 0.000000
0.000000 0.000000 0.000000
220.689214 5.000867 0.000000
5.000867 215.834589 0.000000
0.000000 0.000000 0.000000
214.470109 4.874419 0.000000
4.874419 209.158424 0.000000
0.000000 0.000000 0.000000
204.916653 4.728075 0.000000
4.728075 199.234930 0.000000
0.000000 0.000000 0.000000
192.726918 4.567846 0.000000
4.567846 186.774191 0.000000
0.000000 0.000000 0.000000
171.221173 4.405499 0.000000
4.405499 165.119850 0.000000
0.000000 0.000000 0.000000
140.505202 4.241633 0.000000
4.241633 134.385997 0.000000
0.000000 0.000000 0.000000
111.100919 4.072981 0.000000
4.072981 105.087617 0.000000
0.000000 0.000000 0.000000
72.112064 3.894767 0.000000
3.894767 66.356168 0.000000
0.000000 0.000000 0.000000
20.068732 3.729010 0.000000
3.729010 14.675093 0.000000
0.000000 0.000000 0.000000
-39.511339 3.555614 0.000000
3.555614 -44.337821 0.000000
0.000000 0.000000 0.000000
-104.846371 3.345425 0.000000
3.345425 -108.837517 0.000000
0.000000 0.000000 0.000000
-176.166944 3.120221 0.000000
3.120221 -179.343666 0.000000
0.000000 0.000000 0.000000
-265.081154 2.838357 0.000000
2.838357 -267.206258 0.000000
0.000000 0.000000 0.000000
-338.358225 2.586561 0.000000
2.586561 -339.162746 0.000000
0.000000 0.000000 0.000000
-440.684170 2.186088 0.000000
2.186088 -440.076013 0.000000
0.000000 0.000000 0.000000
-473.510615 1.858051 0.000000
1.858051 -471.464335 0.000000
0.000000 0.000000 0.000000
-552.941447 1.471103 0.000000
1.471103 -549.093109 0.000000
0.000000 0.000000 0.000000
-604.567333 1.157226 0.000000
1.157226 -598.897640 0.000000
0.000000 0.000000 0.000000
-544.206019 0.737227 0.000000
0.737227 -535.607689 0.000000
0.000000 0.000000 0.000000
-597.292389 -0.282823 0.000000
-0.282823 -585.881005 0.000000
0.000000 0.000000 0.000000
-546.662250 -1.437384 0.000000
-1.437384 -532.101268 0.000000
0.000000 0.000000 0.000000
-501.074434 -3.647574 0.000000
-3.647574 -483.820097 0.000000
0.000000 0.000000 0.000000
-528.570343 -5.665922 0.000000
-5.665922 -511.563110 0.000000
0.000000 0.000000 0.000000
199.514317 5.185041 0.000000
5.185041 198.223936 0.000000
0.000000 0.000000 0.000000
232.738148 5.328317 0.000000
5.328317 230.764158 0.000000
0.000000 0.000000 0.000000
252.474890 5.403970 0.000000
5.403970 249.757859 0.000000
0.000000 0.000000 0.000000
263.600798 5.420614 0.000000
5.420614 260.125972 0.000000
0.000000 0.000000 0.000000
267.448145 5.388986 0.000000
5.388986 263.273578 0.000000
0.000000 0.000000 0.000000
267.560343 5.322798 0.000000
5.322798 262.786369 0.000000
0.000000 0.000000 0.000000
260.588953 5.224194 0.000000
5.224194 255.284105 0.000000
0.000000 0.000000 0.000000
248.412653 5.110749 0.000000
5.110749 242.673410 0.000000
0.000000 0.000000 0.000000
227.570731 4.981722 0.000000
4.981722 221.531778 0.000000
0.000000 0.000000 0.000000
199.379104 4.838724 0.000000
4.838724 193.176203 0.000000
0.000000 0.000000 0.000000
166.613288 4.685562 0.000000
4.685562 160.337468 0.000000
0.000000 0.000000 0.000000
124.931202 4.536847 0.000000
4.536847 118.705573 0.000000
0.000000 0.000000 0.000000
69.826293 4.379461 0.000000
4.379461 63.825520 0.000000
0.000000 0.000000 0.000000
11.025493 4.210550 0.000000
4.210550 5.421555 0.000000
0.000000 0.000000 0.000000
-59.052901 4.034419 0.000000
4.034419 -64.145760 0.000000
0.000000 0.000000 0.000000
-145.161734 3.837492 0.000000
3.837492 -149.633047 0.000000
0.000000 0.000000 0.000000
-230.803602 3.634469 0.000000
3.634469 -234.426594 0.000000
0.000000 0.000000 0.000000
-338.123174 3.364309 0.000000
3.364309 -340.647985 0.000000
0.000000 0.000000 0.000000
-438.789558 3.091685 0.000000
3.091685 -440.272631 0.000000
0.000000 0.000000 0.000000
-549.476095 2.755440 0.000000
2.755440 -549.649688 0.000000
0.000000 0.000000 0.000000
-655.492875 2.400737 0.000000
2.400737 -654.346059 0.000000
0.000000 0.000000 0.000000
-739.889110 2.005804 0.000000
2.005804 -736.879026 0.000000
0.000000 0.000000 0.000000
-798.342137 1.506691 0.000000
1.506691 -793.476774 0.000000
0.000000 0.000000 0.000000
-870.743042 0.987349 0.000000
0.987349 -863.814942 0.000000
0.000000 0.000000 0.000000
-852.707251 0.134972 0.000000
0.134972 -842.852072 0.000000
0.000000 0.000000 0.000000
-862.458756 -1.053381 0.000000
-1.053381 -850.159644 0.000000
0.000000 0.000000 0.000000
-830.101397 -2.655358 0.000000
-2.655358 -815.639862 0.000000
0.000000 0.000000 0.000000
-822.522022 -4.283058 0.000000
-4.283058 -807.248155 0.000000
0.000000 0.000000 0.000000
-919.730054 -5.842491 0.000000
-5.842491 -904.063623 0.000000
0.000000 0.000000 0.000000
269.705006 5.461684 0.000000
5.461684 268.168483 0.000000
0.000000 0.000000 0.000000
297.190759 5.602363 0.000000
5.602363 294.876972 0.000000
0.000000 0.000000 0.000000
311.491210 5.671850 0.000000
5.671850 308.397916 0.000000
0.000000 0.000000 0.000000
316.040435 5.677737 0.000000
5.677737 312.179649 0.000000
0.000000 0.000000 0.000000
312.708839 5.639024 0.000000
5.639024 308.160963 0.000000
0.000000 0.000000 0.000000
303.487488 5.571057 0.000000
5.571057 298.361586 0.000000
0.000000 0.000000 0.000000
285.477803 5.476563 0.000000
5.476563 279.882418 0.000000
0.000000 0.000000 0.000000
258.725964 5.362450 0.000000
5.362450 252.788891 0.000000
0.000000 0.000000 0.000000
224.917625 5.232631 0.000000
5.232631 218.734255 0.000000
0.000000 0.000000 0.000000
181.639310 5.090961 0.000000
5.090961 175.340924 0.000000
0.000000 0.000000 0.000000
130.768315 4.942390 0.000000
4.942390 124.513771 0.000000
0.000000 0.000000 0.000000
67.717577 4.780591 0.000000
4.780591 61.652386 0.000000
0.000000 0.000000 0.000000
-4.975935 4.609633 0.000000
4.609633 -10.750725 0.000000
0.000000 0.000000 0.000000
-85.738378 4.424072 0.000000
4.424072 -91.059317 0.000000
0.000000 0.000000 0.000000
-179.732951 4.209139 0.000000
4.209139 -184.381301 0.000000
0.000000 0.000000 0.000000
-280.814256 3.996721 0.000000
3.996721 -284.727183 0.000000
0.000000 0.000000 0.000000
-399.737833 3.723833 0.000000
3.723833 -402.677942 0.000000
0.000000 0.000000 0.000000
-508.563085 3.437432 0.000000
3.437432 -510.491570 0.000000
0.000000 0.000000 0.000000
-641.815497 3.088430 0.000000
3.088430 -642.531828 0.000000
0.000000 0.000000 0.000000
-751.208062 2.748400 0.000000
2.748400 -750.525951 0.000000
0.000000 0.000000 0.000000
-894.010714 2.332798 0.000000
2.332798 -891.847537 0.000000
0.000000 0.000000 0.000000
-1002.537036 1.862220 0.000000
1.862220 -998.880263 0.000000
0.000000 0.000000 0.000000
-1087.718161 1.312492 0.000000
1.312492 -1081.973837 0.000000
0.000000 0.000000 0.000000
-1184.316428 0.531651 0.000000
0.531651 -1176.521422 0.000000
0.000000 0.000000 0.000000
-1218.260751 -0.433849 0.000000
-0.433849 -1208.373634 0.000000
0.000000 0.000000 0.000000
-1246.114345 -1.739504 0.000000
-1.739504 -1234.158868 0.000000
0.000000 0.000000 0.000000
-1221.184676 -3.119235 0.000000
-3.119235 -1207.671955 0.000000
0.000000 0.000000 0.000000
-1168.007469 -4.539567 0.000000
-4.539567 -1153.230320 0.000000
0.000000 0.000000 0.000000
-1239.705928 -5.837456 0.000000
-5.837456 -1224.690517 0.000000
0.000000 0.000000 0.000000
344.022509 5.807297 0.000000
5.807297 342.296149 0.000000
0.000000 0.000000 0.000000
365.992910 5.929874 0.000000
5.929874 363.421506 0.000000
0.000000 0.000000 0.000000
372.003653 5.980272 0.000000
5.980272 368.626030 0.000000
0.000000 0.000000 0.000000
366.637794 5.972345 0.000000
5.972345 362.504570 0.000000
0.000000 0.000000 0.000000
353.042450 5.929674 0.000000
5.929674 348.265292 0.000000
0.000000 0.000000 0.000000
330.037831 5.856090 0.000000
5.856090 324.731563 0.000000
0.000000 0.000000 0.000000
297.574197 5.754009 0.000000
5.754009 291.856794 0.000000
0.000000 0.000000 0.000000
256.821181 5.638000 0.000000
5.638000 250.818875 0.000000
0.000000 0.000000 0.000000
204.324625 5.506058 0.000000
5.506058 198.170481 0.000000
0.000000 0.000000 0.000000
141.739891 5.365128 0.000000
5.365128 135.571429 0.000000
0.000000 0.000000 0.000000
68.586798 5.208387 0.000000
5.208387 62.516996 0.000000
0.000000 0.000000 0.000000
-14.172710 5.032368 0.000000
5.032368 -19.970294 0.000000
0.000000 0.000000 0.000000
-109.392008 4.853032 0.000000
4.853032 -114.776378 0.000000
0.000000 0.000000 0.000000
-222.406443 4.640127 0.000000
4.640127 -227.261257 0.000000
0.000000 0.000000 0.000000
-333.159523 4.416561 0.000000
4.416561 -337.311133 0.000000
0.000000 0.000000 0.000000
-470.073626 4.120009 0.000000
4.120009 -473.362437 0.000000
0.000000 0.000000 0.000000
-592.401394 3.838173 0.000000
3.838173 -594.802121 0.000000
0.000000 0.000000 0.000000
-744.314377 3.474624 0.000000
3.474624 -745.506139 0.000000
0.000000 0.000000 0.000000
-878.779987 3.096091 0.000000
3.096091 -878.811952 0.000000
0.000000 0.000000 0.000000
-1017.199544 2.616942 0.000000
2.616942 -1015.851939 0.000000
0.000000 0.000000 0.000000
-1129.296486 2.141424 0.000000
2.141424 -1126.394844 0.000000
0.000000 0.000000 0.000000
-1281.980249 1.553167 0.000000
1.553167 -1277.409689 0.000000
0.000000 0.000000 0.000000
-1363.630752 0.899613 0.000000
0.899613 -1357.215996 0.000000
0.000000 0.000000 0.000000
-1485.243754 0.031086 0.000000
0.031086 -1476.967361 0.000000
0.000000 0.000000 0.000000
-1559.518087 -0.919057 0.000000
-0.919057 -1549.301779 0.000000
0.000000 0.000000 0.000000
-1645.968980 -2.087270 0.000000
-2.087270 -1634.272030 0.000000
0.000000 0.000000 0.000000
-1692.151293 -3.298746 0.000000
-3.298746 -1679.296842 0.000000
0.000000 0.000000 0.000000
-1665.875767 -4.612935 0.000000
-4.612935 -1652.138667 0.000000
0.000000 0.000000 0.000000
-1639.806187 -5.757153 0.000000
-5.757153 -1625.522588 0.000000
0.000000 0.000000 0.000000
420.067753 6.177048 0.000000
6.177048 418.195235 0.000000
0.000000 0.000000 0.000000
428.752889 6.273880 0.000000
6.273880 426.010362 0.000000
0.000000 0.000000 0.000000
422.862633 6.300723 0.000000
6.300723 419.311001 0.000000
0.000000 0.000000 0.000000
404.229343 6.274066 0.000000
6.274066 399.947373 0.000000
0.000000 0.000000 0.000000
377.178794 6.215369 0.000000
6.215369 372.306445 0.000000
0.000000 0.000000 0.000000
336.773296 6.126572 0.000000
6.126572 331.432305 0.000000
0.000000 0.000000 0.000000
287.590922 6.021635 0.000000
6.021635 281.903670 0.000000
0.000000 0.000000 0.000000
225.925844 5.893106 0.000000
5.893106 220.035427 0.000000
0.000000 0.000000 0.000000
154.629718 5.747854 0.000000
5.747854 148.659314 0.000000
0.000000 0.000000 0.000000
72.757034 5.590673 0.000000
5.590673 66.850550 0.000000
0.000000 0.000000 0.000000
-25.318380 5.415966 0.000000
5.415966 -31.024026 0.000000
0.000000 0.000000 0.000000
-130.203294 5.231098 0.000000
5.231098 -135.588687 0.000000
0.000000 0.000000 0.000000
-250.761027 5.004722 0.000000
5.004722 -255.639419 0.000000
0.000000 0.000000 0.000000
-376.998584 4.777374 0.000000
4.777374 -381.290752 0.000000
0.000000 0.000000 0.000000
-522.840988 4.500242 0.000000
4.500242 -526.380515 0.000000
0.000000 0.000000 0.000000
-665.030478 4.219188 0.000000
4.219188 -667.702787 0.000000
0.000000 0.000000 0.000000
-834.797203 3.864273 0.000000
3.864273 -836.439308 0.000000
0.000000 0.000000 0.000000
-979.032900 3.494834 0.000000
3.494834 -979.600168 0.000000
0.000000 0.000000 0.000000
-1154.090228 3.065353 0.000000
3.065353 -1153.392455 0.000000
0.000000 0.000000 0.000000
-1318.872378 2.597404 0.000000
2.597404 -1316.832913 0.000000
0.000000 0.000000 0.000000
-1469.589727 2.026604 0.000000
2.026604 -1466.000421 0.000000
0.000000 0.000000 0.000000
-1620.581530 1.346488 0.000000
1.346488 -1615.469600 0.000000
0.000000 0.000000 0.000000
-1743.637297 0.584910 0.000000
0.584910 -1736.788708 0.000000
0.000000 0.000000 0.000000
-1854.342316 -0.370094 0.000000
-0.370094 -1845.870492 0.000000
0.000000 0.000000 0.000000
-1899.947447 -1.422271 0.000000
-1.422271 -1890.011944 0.000000
0.000000 0.000000 0.000000
-1943.770428 -2.563469 0.000000
-2.563469 -1932.481711 0.000000
0.000000 0.000000 0.000000
-1984.084899 -3.673572 0.000000
-3.673572 -1971.765646 0.000000
0.000000 0.000000 0.000000
-2023.337291 -4.721416 0.000000
-4.721416 -2010.171384 0.000000
0.000000 0.000000 0.000000
-2055.275186 -5.707557 0.000000
-5.707557 -2041.465390 0.000000
0.000000 0.000000 0.000000
495.609974 6.600345 0.000000
6.600345 493.652386 0.000000
0.000000 0.000000 0.000000
489.177419 6.657385 0.000000
6.657385 486.335952 0.000000
0.000000 0.000000 0.000000
466.785756 6.653627 0.000000
6.653627 463.160154 0.000000
0.000000 0.000000 0.000000
431.201321 6.608094 0.000000
6.608094 426.890536 0.000000
0.000000 0.000000 0.000000
384.061131 6.527464 0.000000
6.527464 379.212900 0.000000
0.000000 0.000000 0.000000
325.707090 6.423117 0.000000
6.423117 320.456923 0.000000
0.000000 0.000000 0.000000
254.196865 6.295027 0.000000
6.295027 248.674190 0.000000
0.000000 0.000000 0.000000
172.213228 6.151841 0.000000
6.151841 166.553163 0.000000
0.000000 0.000000 0.000000
76.746170 5.993493 0.000000
5.993493 71.075424 0.000000
0.000000 0.000000 0.000000
-31.576203 5.807326 0.000000
5.807326 -37.102531 0.000000
0.000000 0.000000 0.000000
-147.635432 5.612977 0.000000
5.612977 -152.904289 0.000000
0.000000 0.000000 0.000000
-284.139743 5.386624 0.000000
5.386624 -289.006093 0.000000
0.000000 0.000000 0.000000
-421.630904 5.150200 0.000000
5.150200 -425.979138 0.000000
0.000000 0.000000 0.000000
-581.291851 4.863308 0.000000
4.863308 -584.956480 0.000000
0.000000 0.000000 0.000000
-739.779849 4.564423 0.000000
4.564423 -742.699927 0.000000
0.000000 0.000000 0.000000
-911.284907 4.208072 0.000000
4.208072 -913.261223 0.000000
0.000000 0.000000 0.000000
-1083.877703 3.826046 0.000000
3.826046 -1084.913072 0.000000
0.000000 0.000000 0.000000
-1267.173626 3.394574 0.000000
3.394574 -1267.020798 0.000000
0.000000 0.000000 0.000000
-1439.608664 2.895822 0.000000
2.895822 -1438.244638 0.000000
0.000000 0.000000 0.000000
-1613.516279 2.355431 0.000000
2.355431 -1610.863947 0.000000
0.000000 0.000000 0.000000
-1782.767313 1.729140 0.000000
1.729140 -1778.656652 0.000000
0.000000 0.000000 0.000000
-1942.264310 1.029458 0.000000
1.029458 -1936.702730 0.000000
0.000000 0.000000 0.000000
-2079.534195 0.200732 0.000000
0.200732 -2072.491845 0.000000
0.000000 0.000000 0.000000
-2205.782931 -0.676348 0.000000
-0.676348 -2197.367159 0.000000
0.000000 0.000000 0.000000
-2322.219570 -1.651956 0.000000
-1.651956 -2312.445321 0.000000
0.000000 0.000000 0.000000
-2389.007139 -2.670328 0.000000
-2.670328 -2378.107511 0.000000
0.000000 0.000000 0.000000
-2438.236253 -3.744117 0.000000
-3.744117 -2426.342807 0.000000
0.000000 0.000000 0.000000
-2444.336264 -4.759335 0.000000
-4.759335 -2431.590468 0.000000
0.000000 0.000000 0.000000
-2453.419778 -5.698259 0.000000
-5.698259 -2439.936697 0.000000
0.000000 0.000000 0.000000
564.502535 7.028522 0.000000
7.028522 562.507363 0.000000
0.000000 0.000000 0.000000
535.753312 7.043606 0.000000
7.043606 532.895954 0.000000
0.000000 0.000000 0.000000
494.993475 7.006306 0.000000
7.006306 491.382938 0.000000
0.000000 0.000000 0.000000
438.162168 6.929528 0.000000
6.929528 433.926249 0.000000
0.000000 0.000000 0.000000
370.439044 6.829581 0.000000
6.829581 365.724798 0.000000
0.000000 0.000000 0.000000
289.013996 6.702764 0.000000
6.702764 283.960921 0.000000
0.000000 0.000000 0.000000
194.071326 6.553408 0.000000
6.553408 188.814963 0.000000
0.000000 0.000000 0.000000
89.475029 6.389735 0.000000
6.389735 84.155050 0.000000
0.000000 0.000000 0.000000
-31.354445 6.200617 0.000000
6.200617 -36.614897 0.000000
0.000000 0.000000 0.000000
-160.214531 6.006342 0.000000
6.006342 -165.293859 0.000000
0.000000 0.000000 0.000000
-308.164429 5.769131 0.000000
5.769131 -312.897292 0.000000
0.000000 0.000000 0.000000
-458.009492 5.530858 0.000000
5.530858 -462.321140 0.000000
0.000000 0.000000 0.000000
-631.948189 5.242558 0.000000
5.242558 -635.679584 0.000000
0.000000 0.000000 0.000000
-798.861013 4.947031 0.000000
4.947031 -801.914600 0.000000
0.000000 0.000000 0.000000
-993.822463 4.591327 0.000000
4.591327 -996.087822 0.000000
0.000000 0.000000 0.000000
-1176.310086 4.224509 0.000000
4.224509 -1177.672798 0.000000
0.000000 0.000000 0.000000
-1380.798753 3.789059 0.000000
3.789059 -1381.133019 0.000000
0.000000 0.000000 0.000000
-1570.062737 3.321337 0.000000
3.321337 -1569.352694 0.000000
0.000000 0.000000 0.000000
-1770.311745 2.789759 0.000000
2.789759 -1768.367020 0.000000
0.000000 0.000000 0.000000
-1967.168748 2.185648 0.000000
2.185648 -1963.968914 0.000000
0.000000 0.000000 0.000000
-2140.515382 1.519774 0.000000
1.519774 -2136.015121 0.000000
0.000000 0.000000 0.000000
-2315.376874 0.753085 0.000000
0.753085 -2309.546125 0.000000
0.000000 0.000000 0.000000
-2459.756517 -0.057999 0.000000
-0.057999 -2452.611275 0.000000
0.000000 0.000000 0.000000
-2589.618708 -0.982907 0.000000
-0.982907 -2581.207275 0.000000
0.000000 0.000000 0.000000
-2681.281153 -1.924024 0.000000
-1.924024 -2671.764712 0.000000
0.000000 0.000000 0.000000
-2770.997806 -2.899526 0.000000
-2.899526 -2760.401839 0.000000
0.000000 0.000000 0.000000
-2841.474904 -3.845069 0.000000
-3.845069 -2829.984239 0.000000
0.000000 0.000000 0.000000
-2876.992353 -4.780499 0.000000
-4.780499 -2864.646461 0.000000
0.000000 0.000000 0.000000
-2880.376157 -5.662256 0.000000
-5.662256 -2867.281370 0.000000
0.000000 0.000000 0.000000
623.314893 7.468913 0.000000
7.468913 621.325735 0.000000
0.000000 0.000000 0.000000
571.328128 7.437894 0.000000
7.437894 568.506501 0.000000
0.000000 0.000000 0.000000
503.602799 7.360407 0.000000
7.360407 500.090607 0.000000
0.000000 0.000000 0.000000
425.539567 7.254635 0.000000
7.254635 421.460251 0.000000
0.000000 0.000000 0.000000
331.945278 7.122592 0.000000
7.122592 327.453831 0.000000
0.000000 0.000000 0.000000
225.671926 6.968787 0.000000
6.968787 220.907337 0.000000
0.000000 0.000000 0.000000
108.134209 6.797388 0.000000
6.797388 103.220370 0.000000
0.000000 0.000000 0.000000
-26.274734 6.597781 0.000000
6.597781 -31.185659 0.000000
0.000000 0.000000 0.000000
-166.930751 6.389973 0.000000
6.389973 -171.724207 0.000000
0.000000 0.000000 0.000000
-327.727481 6.147654 0.000000
6.147654 -332.276016 0.000000
0.000000 0.000000 0.000000
-490.145947 5.900282 0.000000
5.900282 -494.345366 0.000000
0.000000 0.000000 0.000000
-675.463605 5.605505 0.000000
5.605505 -679.156377 0.000000
0.000000 0.000000 0.000000
-858.542466 5.304245 0.000000
5.304245 -861.678485 0.000000
0.000000 0.000000 0.000000
-1061.435221 4.951998 0.000000
4.951998 -1063.841637 0.000000
0.000000 0.000000 0.000000
-1261.875842 4.581471 0.000000
4.581471 -1263.505210 0.000000
0.000000 0.000000 0.000000
-1475.763034 4.153296 0.000000
4.153296 -1476.492475 0.000000
0.000000 0.000000 0.000000
-1682.094077 3.695995 0.000000
3.695995 -1681.854914 0.000000
0.000000 0.000000 0.000000
-1905.807017 3.178071 0.000000
3.178071 -1904.495245 0.000000
0.000000 0.000000 0.000000
-2106.681352 2.613277 0.000000
2.613277 -2104.254366 0.000000
0.000000 0.000000 0.000000
-2315.067158 1.976429 0.000000
1.976429 -2311.484433 0.000000
0.000000 0.000000 0.000000
-2508.319278 1.287215 0.000000
1.287215 -2503.504588 0.000000
0.000000 0.000000 0.000000
-2691.800306 0.522319 0.000000
0.522319 -2685.816287 0.000000
0.000000 0.000000 0.000000
-2848.747459 -0.295988 0.000000
-0.295988 -2841.576107 0.000000
0.000000 0.000000 0.000000
-2996.297201 -1.162113 0.000000
-1.162113 -2988.029383 0.000000
0.000000 0.000000 0.000000
-3118.346701 -2.066316 0.000000
-2.066316 -3108.999101 0.000000
0.000000 0.000000 0.000000
-3200.666685 -2.996675 0.000000
-2.996675 -3190.367666 0.000000
0.000000 0.000000 0.000000
-3266.117942 -3.925689 0.000000
-3.925689 -3254.931361 0.000000
0.000000 0.000000 0.000000
-3303.933895 -4.798900 0.000000
-4.798900 -3291.914372 0.000000
0.000000 0.000000 0.000000
-3330.566462 -5.638523 0.000000
-5.638523 -3317.693740 0.000000
0.000000 0.000000 0.000000
665.441608 7.903339 0.000000
7.903339 663.494027 0.000000
0.000000 0.000000 0.000000
585.116274 7.821329 0.000000
7.821329 582.389711 0.000000
0.000000 0.000000 0.000000
493.096723 7.707672 0.000000
7.707672 489.733658 0.000000
0.000000 0.000000 0.000000
386.968716 7.565934 0.000000
7.565934 383.111441 0.000000
0.000000 0.000000 0.000000
268.082702 7.401517 0.000000
7.401517 263.876771 0.000000
0.000000 0.000000 0.000000
136.442467 7.220372 0.000000
7.220372 132.021097 0.000000
0.000000 0.000000 0.000000
-11.069276 7.013483 0.000000
7.013483 -15.567235 0.000000
0.000000 0.000000 0.000000
-165.170366 6.797980 0.000000
6.797980 -169.632892 0.000000
0.000000 0.000000 0.000000
-338.272932 6.546918 0.000000
6.546918 -342.553850 0.000000
0.000000 0.000000 0.000000
-515.494159 6.290433 0.000000
6.290433 -519.505312 0.000000
0.000000 0.000000 0.000000
-712.709396 5.994128 0.000000
5.994128 -716.309835 0.000000
0.000000 0.000000 0.000000
-908.333746 5.687503 0.000000
5.687503 -911.447943 0.000000
0.000000 0.000000 0.000000
-1126.634161 5.335721 0.000000
5.335721 -1129.130364 0.000000
0.000000 0.000000 0.000000
-1338.866302 4.961781 0.000000
4.961781 -1340.680522 0.000000
0.000000 0.000000 0.000000
-1566.398967 4.543849 0.000000
4.543849 -1567.417318 0.000000
0.000000 0.000000 0.000000
-1793.909740 4.092973 0.000000
4.092973 -1794.069461 0.000000
0.000000 0.000000 0.000000
-2023.459119 3.593695 0.000000
3.593695 -2022.652855 0.000000
0.000000 0.000000 0.000000
-2250.540544 3.043155 0.000000
3.043155 -2248.759541 0.000000
0.000000 0.000000 0.000000
-2475.828671 2.451415 0.000000
2.451415 -2472.975690 0.000000
0.000000 0.000000 0.000000
-2695.812667 1.792830 0.000000
1.792830 -2691.880535 0.000000
0.000000 0.000000 0.000000
-2893.600002 1.090886 0.000000
1.090886 -2888.577132 0.000000
0.000000 0.000000 0.000000
-3090.494604 0.324452 0.000000
0.324452 -3084.381908 0.000000
0.000000 0.000000 0.000000
-3260.181235 -0.477451 0.000000
-0.477451 -3253.011451 0.000000
0.000000 0.000000 0.000000
-3412.992852 -1.332212 0.000000
-1.332212 -3404.800279 0.000000
0.000000 0.000000 0.000000
-3541.297542 -2.196404 0.000000
-2.196404 -3532.180933 0.000000
0.000000 0.000000 0.000000
-3651.598616 -3.072006 0.000000
-3.072006 -3641.554460 0.000000
0.000000 0.000000 0.000000
-3732.117111 -3.936930 0.000000
-3.936930 -3721.222525 0.000000
0.000000 0.000000 0.000000
-3776.561423 -4.795007 0.000000
-4.795007 -3764.799003 0.000000
0.000000 0.000000 0.000000
-3784.709071 -5.626781 0.000000
-5.626781 -3772.115215 0.000000
0.000000 0.000000 0.000000
687.588454 8.320327 0.000000
8.320327 685.704530 0.000000
0.000000 0.000000 0.000000
577.394560 8.192898 0.000000
8.192898 574.802252 0.000000
0.000000 0.000000 0.000000
455.946794 8.039369 0.000000
8.039369 452.788147 0.000000
0.000000 0.000000 0.000000
321.827532 7.860191 0.000000
7.860191 318.236467 0.000000
0.000000 0.000000 0.000000
176.422885 7.668979 0.000000
7.668979 172.551581 0.000000
0.000000 0.000000 0.000000
13.885178 7.448459 0.000000
7.448459 9.860965 0.000000
0.000000 0.000000 0.000000
-154.159793 7.220971 0.000000
7.220971 -158.219025 0.000000
0.000000 0.000000 0.000000
-342.323055 6.961303 0.000000
6.961303 -346.284333 0.000000
0.000000 0.000000 0.000000
-531.914082 6.696701 0.000000
6.696701 -535.675093 0.000000
0.000000 0.000000 0.000000
-742.807572 6.391672 0.000000
6.391672 -746.242810 0.000000
0.000000 0.000000 0.000000
-952.858470 6.080054 0.000000
6.080054 -955.897579 0.000000
0.000000 0.000000 0.000000
-1181.766361 5.724042 0.000000
5.724042 -1184.269584 0.000000
0.000000 0.000000 0.000000
-1408.620005 5.353682 0.000000
5.353682 -1410.540439 0.000000
0.000000 0.000000 0.000000
-1650.871968 4.943052 0.000000
4.943052 -1652.086403 0.000000
0.000000 0.000000 0.000000
-1890.901220 4.499492 0.000000
4.499492 -1891.350631 0.000000
0.000000 0.000000 0.000000
-2137.153174 4.015232 0.000000
4.015232 -2136.774363 0.000000
0.000000 0.000000 0.000000
-2380.076869 3.488357 0.000000
3.488357 -2378.803017 0.000000
0.000000 0.000000 0.000000
-2624.098251 2.919292 0.000000
2.919292 -2621.872825 0.000000
0.000000 0.000000 0.000000
-2858.412060 2.296152 0.000000
2.296152 -2855.206241 0.000000
0.000000 0.000000 0.000000
-3087.199307 1.634952 0.000000
1.634952 -3083.016916 0.000000
0.000000 0.000000 0.000000
-3305.570341 0.917977 0.000000
0.917977 -3300.364773 0.000000
0.000000 0.000000 0.000000
-3505.825903 0.167389 0.000000
0.167389 -3499.652177 0.000000
0.000000 0.000000 0.000000
-3690.958269 -0.626900 0.000000
-0.626900 -3683.811848 0.000000
0.000000 0.000000 0.000000
-3851.677141 -1.440945 0.000000
-1.440945 -3843.613344 0.000000
0.000000 0.000000 0.000000
-3994.092148 -2.284317 0.000000
-2.284317 -3985.119255 0.000000
0.000000 0.000000 0.000000
-4101.669786 -3.128985 0.000000
-3.128985 -4091.852095 0.000000
0.000000 0.000000 0.000000
-4191.041432 -3.970374 0.000000
-3.970374 -4180.382582 0.000000
0.000000 0.000000 0.000000
-4251.785209 -4.784321 0.000000
-4.784321 -4240.287042 0.000000
0.000000 0.000000 0.000000
-4291.623646 -5.582528 0.000000
-5.582528 -4279.240540 0.000000
0.000000 0.000000 0.000000
683.275722 8.713329 0.000000
8.713329 681.486190 0.000000
0.000000 0.000000 0.000000
543.874823 8.543122 0.000000
8.543122 541.445137 0.000000
0.000000 0.000000 0.000000
389.795910 8.346081 0.000000
8.346081 386.874134 0.000000
0.000000 0.000000 0.000000
228.076982 8.136375 0.000000
8.136375 224.795360 0.000000
0.000000 0.000000 0.000000
51.826578 7.903661 0.000000
7.903661 48.323670 0.000000
0.000000 0.000000 0.000000
-133.037413 7.662974 0.000000
7.662974 -136.647723 0.000000
0.000000 0.000000 0.000000
-335.125888 7.393001 0.000000
7.393001 -338.709161 0.000000
0.000000 0.000000 0.000000
-540.578911 7.116478 0.000000
7.116478 -544.041660 0.000000
0.000000 0.000000 0.000000
-764.004350 6.806325 0.000000
6.806325 -767.224092 0.000000
0.000000 0.000000 0.000000
-987.912285 6.487636 0.000000
6.487636 -990.804962 0.000000
0.000000 0.000000 0.000000
-1231.437128 6.131339 0.000000
6.131339 -1233.888866 0.000000
0.000000 0.000000 0.000000
-1471.356124 5.761722 0.000000
5.761722 -1473.301413 0.000000
0.000000 0.000000 0.000000
-1727.923589 5.349702 0.000000
5.349702 -1729.257885 0.000000
0.000000 0.000000 0.000000
-1980.477586 4.913166 0.000000
4.913166 -1981.151531 0.000000
0.000000 0.000000 0.000000
-2240.722849 4.439695 0.000000
4.439695 -2240.653592 0.000000
0.000000 0.000000 0.000000
-2501.452010 3.930037 0.000000
3.930037 -2500.584455 0.000000
0.000000 0.000000 0.000000
-2760.345123 3.384995 0.000000
3.384995 -2758.632804 0.000000
0.000000 0.000000 0.000000
-3016.399313 2.791436 0.000000
2.791436 -3013.814664 0.000000
0.000000 0.000000 0.000000
-3262.253137 2.167853 0.000000
2.167853 -3258.759947 0.000000
0.000000 0.000000 0.000000
-3505.478374 1.490426 0.000000
1.490426 -3501.061913 0.000000
0.000000 0.000000 0.000000
-3726.763221 0.789382 0.000000
0.789382 -3721.441739 0.000000
0.000000 0.000000 0.000000
-3942.000247 0.036654 0.000000
0.036654 -3935.764466 0.000000
0.000000 0.000000 0.000000
-4132.878992 -0.731324 0.000000
-0.731324 -4125.774320 0.000000
0.000000 0.000000 0.000000
-4309.164760 -1.532393 0.000000
-1.532393 -4301.187834 0.000000
0.000000 0.000000 0.000000
-4461.020593 -2.335762 0.000000
-2.335762 -4452.231219 0.000000
0.000000 0.000000 0.000000
-4592.309243 -3.150669 0.000000
-3.150669 -4582.679111 0.000000
0.000000 0.000000 0.000000
-4690.244415 -3.962521 0.000000
-3.962521 -4679.793883 0.000000
0.000000 0.000000 0.000000
-4755.298482 -4.769998 0.000000
-4.769998 -4743.984751 0.000000
0.000000 0.000000 0.000000
-4791.353265 -5.570787 0.000000
-5.570787 -4779.163358 0.000000
0.000000 0.000000 0.000000
650.626570 9.078922 0.000000
9.078922 648.953762 0.000000
0.000000 0.000000 0.000000
476.565061 8.864061 0.000000
8.864061 474.333685 0.000000
0.000000 0.000000 0.000000
295.064164 8.635083 0.000000
8.635083 292.400870 0.000000
0.000000 0.000000 0.000000
100.193755 8.384086 0.000000
8.384086 97.241573 0.000000
0.000000 0.000000 0.000000
-100.605058 8.126636 0.000000
8.126636 -103.723022 0.000000
0.000000 0.000000 0.000000
-318.457632 7.844148 0.000000
7.844148 -321.623340 0.000000
0.000000 0.000000 0.000000
-539.403790 7.555701 0.000000
7.555701 -542.522528 0.000000
0.000000 0.000000 0.000000
-776.811175 7.238287 0.000000
7.238287 -779.760235 0.000000
0.000000 0.000000 0.000000
-1017.346402 6.911114 0.000000
6.911114 -1020.044367 0.000000
0.000000 0.000000 0.000000
-1271.751161 6.551965 0.000000
6.551965 -1274.085821 0.000000
0.000000 0.000000 0.000000
-1527.912375 6.176836 0.000000
6.176836 -1529.828349 0.000000
0.000000 0.000000 0.000000
-1795.178039 5.769380 0.000000
5.769380 -1796.568965 0.000000
0.000000 0.000000 0.000000
-2063.350795 5.338271 0.000000
5.338271 -2064.167071 0.000000
0.000000 0.000000 0.000000
-2337.939261 4.876587 0.000000
4.876587 -2338.097699 0.000000
0.000000 0.000000 0.000000
-2613.331527 4.379203 0.000000
4.379203 -2612.782463 0.000000
0.000000 0.000000 0.000000
-2886.664883 3.851862 0.000000
3.851862 -2885.368197 0.000000
0.000000 0.000000 0.000000
-3159.325666 3.283833 0.000000
3.283833 -3157.231102 0.000000
0.000000 0.000000 0.000000
-3425.946905 2.688882 0.000000
2.688882 -3423.040695 0.000000
0.000000 0.000000 0.000000
-3685.535504 2.047512 0.000000
2.047512 -3681.779622 0.000000
0.000000 0.000000 0.000000
-3933.958365 1.380427 0.000000
1.380427 -3929.379916 0.000000
0.000000 0.000000 0.000000
-4173.069305 0.672615 0.000000
0.672615 -4167.636781 0.000000
0.000000 0.000000 0.000000
-4393.891959 -0.052464 0.000000
-0.052464 -4387.641310 0.000000
0.000000 0.000000 0.000000
-4602.406435 -0.811845 0.000000
-0.811845 -4595.324642 0.000000
0.000000 0.000000 0.000000
-4783.753176 -1.579892 0.000000
-1.579892 -4775.873747 0.000000
0.000000 0.000000 0.000000
-4950.050930 -2.369260 0.000000
-2.369260 -4941.363563 0.000000
0.000000 0.000000 0.000000
-5086.698911 -3.156576 0.000000
-3.156576 -5077.232188 0.000000
0.000000 0.000000 0.000000
-5204.224670 -3.949988 0.000000
-3.949988 -5193.956778 0.000000
0.000000 0.000000 0.000000
-5285.195964 -4.737450 0.000000
-4.737450 -5274.093186 0.000000
0.000000 0.000000 0.000000
-5339.103835 -5.532295 0.000000
-5.532295 -5327.115241 0.000000
0.000000 0.000000 0.000000
582.124976 9.408875 0.000000
9.408875 580.597251 0.000000
0.000000 0.000000 0.000000
379.656996 9.160625 0.000000
9.160625 377.635573 0.000000
0.000000 0.000000 0.000000
162.937529 8.890932 0.000000
8.890932 160.561213 0.000000
0.000000 0.000000 0.000000
-56.509382 8.616174 0.000000
8.616174 -59.123077 0.000000
0.000000 0.000000 0.000000
-290.399520 8.318349 0.000000
8.318349 -293.121236 0.000000
0.000000 0.000000 0.000000
-527.882699 8.015053 0.000000
8.015053 -530.621076 0.000000
0.000000 0.000000 0.000000
-781.458965 7.686650 0.000000
7.686650 -784.097691 0.000000
0.000000 0.000000 0.000000
-1036.409913 7.350460 0.000000
7.350460 -1038.868382 0.000000
0.000000 0.000000 0.000000
-1305.343169 6.985879 0.000000
6.985879 -1307.523290 0.000000
0.000000 0.000000 0.000000
-1575.008224 6.607894 0.000000
6.607894 -1576.836429 0.000000
0.000000 0.000000 0.000000
-1856.655775 6.201045 0.000000
6.201045 -1858.039049 0.000000
0.000000 0.000000 0.000000
-2138.802653 5.774114 0.000000
5.774114 -2139.687006 0.000000
0.000000 0.000000 0.000000
-2427.444242 5.318580 0.000000
5.318580 -2427.756039 0.000000
0.000000 0.000000 0.000000
-2716.689289 4.832943 0.000000
4.832943 -2716.383660 0.000000
0.000000 0.000000 0.000000
-3004.592585 4.322207 0.000000
4.322207 -3003.617141 0.000000
0.000000 0.000000 0.000000
-3294.456584 3.773415 0.000000
3.773415 -3292.767505 0.000000
0.000000 0.000000 0.000000
-3574.970856 3.202618 0.000000
3.202618 -3572.543698 0.000000
0.000000 0.000000 0.000000
-3858.447101 2.587388 0.000000
2.587388 -3855.259641 0.000000
0.000000 0.000000 0.000000
-4123.930434 1.957543 0.000000
1.957543 -4119.975522 0.000000
0.000000 0.000000 0.000000
-4388.897298 1.285320 0.000000
1.285320 -4384.149667 0.000000
0.000000 0.000000 0.000000
-4633.500722 0.598662 0.000000
0.598662 -4627.981801 0.000000
0.000000 0.000000 0.000000
-4868.796082 -0.122881 0.000000
-0.122881 -4862.497230 0.000000
0.000000 0.000000 0.000000
-5083.537512 -0.853565 0.000000
-0.853565 -5076.490270 0.000000
0.000000 0.000000 0.000000
-5283.418234 -1.611681 0.000000
-1.611681 -5275.609256 0.000000
0.000000 0.000000 0.000000
-5455.878981 -2.374167 0.000000
-2.374167 -5447.324885 0.000000
0.000000 0.000000 0.000000
-5609.008479 -3.151194 0.000000
-3.151194 -5599.676272 0.000000
0.000000 0.000000 0.000000
-5733.796704 -3.928881 0.000000
-3.928881 -5723.678663 0.000000
0.000000 0.000000 0.000000
-5832.466591 -4.706141 0.000000
-4.706141 -5821.520190 0.000000
0.000000 0.000000 0.000000
-5904.679931 -5.492663 0.000000
-5.492663 -5892.863639 0.000000
0.000000 0.000000 0.000000
480.895287 9.710315 0.000000
9.710315 479.523735 0.000000
0.000000 0.000000 0.000000
242.609869 9.419616 0.000000
9.419616 240.825132 0.000000
0.000000 0.000000 0.000000
1.630716 9.125352 0.000000
9.125352 -0.455856 0.000000
0.000000 0.000000 0.000000
-251.900209 8.812008 0.000000
8.812008 -254.164201 0.000000
0.000000 0.000000 0.000000
-506.781189 8.494477 0.000000
8.494477 -509.119216 0.000000
0.000000 0.000000 0.000000
-776.836202 8.153747 0.000000
8.153747 -779.137898 0.000000
0.000000 0.000000 0.000000
-1047.777199 7.806672 0.000000
7.806672 -1049.966859 0.000000
0.000000 0.000000 0.000000
-1331.076916 7.436022 0.000000
7.436022 -1333.052273 0.000000
0.000000 0.000000 0.000000
-1617.081649 7.054099 0.000000
7.054099 -1618.775384 0.000000
0.000000 0.000000 0.000000
-1911.920868 6.646647 0.000000
6.646647 -1913.245057 0.000000
0.000000 0.000000 0.000000
-2208.604337 6.220214 0.000000
6.220214 -2209.506457 0.000000
0.000000 0.000000 0.000000
-2509.704198 5.768637 0.000000
5.768637 -2510.109943 0.000000
0.000000 0.000000 0.000000
-2813.009722 5.291833 0.000000
5.291833 -2812.870300 0.000000
0.000000 0.000000 0.000000
-3116.252844 4.792650 0.000000
4.792650 -3115.519196 0.000000
0.000000 0.000000 0.000000
-3420.789388 4.262887 0.000000
4.262887 -3419.418438 0.000000
0.000000 0.000000 0.000000
-3720.309178 3.710506 0.000000
3.710506 -3718.281783 0.000000
0.000000 0.000000 0.000000
-4015.929856 3.124886 0.000000
3.124886 -4013.199808 0.000000
0.000000 0.000000 0.000000
-4302.799557 2.521373 0.000000
2.521373 -4299.367527 0.000000
0.000000 0.000000 0.000000
-4586.183330 1.880966 0.000000
1.880966 -4582.019184 0.000000
0.000000 0.000000 0.000000
-4853.232396 1.223843 0.000000
1.223843 -4848.362121 0.000000
0.000000 0.000000 0.000000
-5112.750501 0.537359 0.000000
0.537359 -5107.150179 0.000000
0.000000 0.000000 0.000000
-5355.488190 -0.167022 0.000000
-0.167022 -5349.174047 0.000000
0.000000 0.000000 0.000000
-5583.458852 -0.887443 0.000000
-0.887443 -5576.417552 0.000000
0.000000 0.000000 0.000000
-5796.175496 -1.619129 0.000000
-1.619129 -5788.422602 0.000000
0.000000 0.000000 0.000000
-5988.739251 -2.364519 0.000000
-2.364519 -5980.263877 0.000000
0.000000 0.000000 0.000000
-6155.240022 -3.119788 0.000000
-3.119788 -6146.036033 0.000000
0.000000 0.000000 0.000000
-6293.720947 -3.890561 0.000000
-3.890561 -6283.754999 0.000000
0.000000 0.000000 0.000000
-6398.051725 -4.671988 0.000000
-4.671988 -6387.269721 0.000000
0.000000 0.000000 0.000000
-6478.403719 -5.460693 0.000000
-5.460693 -6466.769742 0.000000
0.000000 0.000000 0.000000
337.699000 9.975076 0.000000
9.975076 336.496519 0.000000
0.000000 0.000000 0.000000
74.578543 9.656653 0.000000
9.656653 73.022698 0.000000
0.000000 0.000000 0.000000
-199.530379 9.324712 0.000000
9.324712 -201.319137 0.000000
0.000000 0.000000 0.000000
-475.539776 8.990048 0.000000
8.990048 -477.463491 0.000000
0.000000 0.000000 0.000000
-762.591796 8.637417 0.000000
8.637417 -764.538329 0.000000
0.000000 0.000000 0.000000
-1049.863482 8.279170 0.000000
8.279170 -1051.758715 0.000000
0.000000 0.000000 0.000000
-1349.542843 7.899684 0.000000
7.899684 -1351.285433 0.000000
0.000000 0.000000 0.000000
-1649.352998 7.510602 0.000000
7.510602 -1650.876420 0.000000
0.000000 0.000000 0.000000
-1959.118340 7.099458 0.000000
7.099458 -1960.342751 0.000000
0.000000 0.000000 0.000000
-2269.161813 6.673896 0.000000
6.673896 -2270.030401 0.000000
0.000000 0.000000 0.000000
-2585.062463 6.226684 0.000000
6.226684 -2585.504199 0.000000
0.000000 0.000000 0.000000
-2902.537443 5.757791 0.000000
5.757791 -2902.505409 0.000000
0.000000 0.000000 0.000000
-3219.307732 5.268934 0.000000
5.268934 -3218.750988 0.000000
0.000000 0.000000 0.000000
-3538.493898 4.751533 0.000000
4.751533 -3537.371308 0.000000
0.000000 0.000000 0.000000
-3850.885709 4.216602 0.000000
4.216602 -3849.164055 0.000000
0.000000 0.000000 0.000000
-4165.692252 3.653232 0.000000
3.653232 -4163.338347 0.000000
0.000000 0.000000 0.000000
-4470.890354 3.069880 0.000000
3.069880 -4467.895116 0.000000
0.000000 0.000000 0.000000
-4772.712469 2.455910 0.000000
2.455910 -4769.054361 0.000000
0.000000 0.000000 0.000000
-5060.065318 1.829318 0.000000
1.829318 -5055.742795 0.000000
0.000000 0.000000 0.000000
-5344.793147 1.172334 0.000000
1.172334 -5339.787198 0.000000
0.000000 0.000000 0.000000
-5610.765493 0.506841 0.000000
0.506841 -5605.087784 0.000000
0.000000 0.000000 0.000000
-5868.159469 -0.182862 0.000000
-0.182862 -5861.805291 0.000000
0.000000 0.000000 0.000000
-6104.806953 -0.890979 0.000000
-0.890979 -6097.780568 0.000000
0.000000 0.000000 0.000000
-6322.420585 -1.612518 0.000000
-1.612518 -6314.713231 0.000000
0.000000 0.000000 0.000000
-6525.019107 -2.348015 0.000000
-2.348015 -6516.621878 0.000000
0.000000 0.000000 0.000000
-6708.321846 -3.091497 0.000000
-3.091497 -6699.219853 0.000000
0.000000 0.000000 0.000000
-6872.044858 -3.846640 0.000000
-3.846640 -6862.209083 0.000000
0.000000 0.000000 0.000000
-6999.429391 -4.615620 0.000000
-4.615620 -6988.808390 0.000000
0.000000 0.000000 0.000000
-7098.416960 -5.406726 0.000000
-5.406726 -7086.957381 0.000000
0.000000 0.000000 0.000000
159.529351 10.210502 0.000000
10.210502 158.494207 0.000000
0.000000 0.000000 0.000000
-135.876828 9.859782 0.000000
9.859782 -137.191223 0.000000
0.000000 0.000000 0.000000
-432.345081 9.506374 0.000000
9.506374 -433.845412 0.000000
0.000000 0.000000 0.000000
-738.471834 9.138887 0.000000
9.138887 -740.055148 0.000000
0.000000 0.000000 0.000000
-1044.047420 8.768262 0.000000
8.768262 -1045.628789 0.000000
0.000000 0.000000 0.000000
-1360.790954 8.379664 0.000000
8.379664 -1362.278918 0.000000
0.000000 0.000000 0.000000
-1676.794116 7.983924 0.000000
7.983924 -1678.124205 0.000000
0.000000 0.000000 0.000000
-2000.784267 7.568555 0.000000
7.568555 -2001.874178 0.000000
0.000000 0.000000 0.000000
-2325.071628 7.141141 0.000000
7.141141 -2325.865324 0.000000
0.000000 0.000000 0.000000
-2655.547311 6.693861 0.000000
6.693861 -2655.977318 0.000000
0.000000 0.000000 0.000000
-2986.103617 6.229631 0.000000
6.229631 -2986.124518 0.000000
0.000000 0.000000 0.000000
-3317.990777 5.746962 0.000000
5.746962 -3317.551046 0.000000
0.000000 0.000000 0.000000
-3650.791304 5.241400 0.000000
5.241400 -3649.848387 0.000000
0.000000 0.000000 0.000000
-3978.761297 4.720693 0.000000
4.720693 -3977.283461 0.000000
0.000000 0.000000 0.000000
-4307.781040 4.171584 0.000000
4.171584 -4305.732813 0.000000
0.000000 0.000000 0.000000
-4627.325797 3.607511 0.000000
3.607511 -4624.696050 0.000000
0.000000 0.000000 0.000000
-4944.552169 3.021614 0.000000
3.021614 -4941.305696 0.000000
0.000000 0.000000 0.000000
-5253.953865 2.417301 0.000000
2.417301 -5250.093278 0.000000
0.000000 0.000000 0.000000
-5555.026750 1.792411 0.000000
1.792411 -5550.531163 0.000000
0.000000 0.000000 0.000000
-5844.338710 1.150405 0.000000
1.150405 -5839.218544 0.000000
0.000000 0.000000 0.000000
-6123.735056 0.485129 0.000000
0.485129 -6117.978305 0.000000
0.000000 0.000000 0.000000
-6388.731763 -0.189946 0.000000
-0.189946 -6382.344586 0.000000
0.000000 0.000000 0.000000
-6642.587283 -0.880214 0.000000
-0.880214 -6635.561795 0.000000
0.000000 0.000000 0.000000
-6879.899964 -1.589080 0.000000
-1.589080 -6872.231507 0.000000
0.000000 0.000000 0.000000
-7091.618422 -2.308715 0.000000
-2.308715 -7083.291123 0.000000
0.000000 0.000000 0.000000
-7285.284502 -3.049070 0.000000
-3.049070 -7276.270798 0.000000
0.000000 0.000000 0.000000
-7457.677649 -3.803372 0.000000
-3.803372 -7447.961920 0.000000
0.000000 0.000000 0.000000
-7601.241004 -4.571171 0.000000
-4.571171 -7590.767691 0.000000
0.000000 0.000000 0.000000
-7722.100883 -5.362642 0.000000
-5.362642 -7710.819528 0.000000
0.000000 0.000000 0.000000
-60.378543 10.412699 0.000000
10.412699 -61.233739 0.000000
0.000000 0.000000 0.000000
-378.590643 10.038940 0.000000
10.038940 -379.673489 0.000000
0.000000 0.000000 0.000000
-704.518430 9.656260 0.000000
9.656260 -705.732265 0.000000
0.000000 0.000000 0.000000
-1030.569882 9.271076 0.000000
9.271076 -1031.830546 0.000000
0.000000 0.000000 0.000000
-1363.495641 8.872996 0.000000
8.872996 -1364.713148 0.000000
0.000000 0.000000 0.000000
-1695.841063 8.468803 0.000000
8.468803 -1696.953532 0.000000
0.000000 0.000000 0.000000
-2036.007678 8.049173 0.000000
8.049173 -2036.937108 0.000000
0.000000 0.000000 0.000000
-2375.825709 7.618774 0.000000
7.618774 -2376.514659 0.000000
0.000000 0.000000 0.000000
-2720.604131 7.171701 0.000000
7.171701 -2720.988526 0.000000
0.000000 0.000000 0.000000
-3064.712876 6.710007 0.000000
6.710007 -3064.744975 0.000000
0.000000 0.000000 0.000000
-3410.267552 6.231781 0.000000
6.231781 -3409.896066 0.000000
0.000000 0.000000 0.000000
-3756.072011 5.735450 0.000000
5.735450 -3755.255957 0.000000
0.000000 0.000000 0.000000
-4098.653061 5.224011 0.000000
5.224011 -4097.359186 0.000000
0.000000 0.000000 0.000000
-4442.766010 4.690202 0.000000
4.690202 -4440.959608 0.000000
0.000000 0.000000 0.000000
-4776.706752 4.146423 0.000000
4.146423 -4774.364619 0.000000
0.000000 0.000000 0.000000
-5113.188246 3.575783 0.000000
3.575783 -5110.283692 0.000000
0.000000 0.000000 0.000000
-5436.383201 2.993609 0.000000
2.993609 -5432.911076 0.000000
0.000000 0.000000 0.000000
-5756.639738 2.390410 0.000000
2.390410 -5752.582205 0.000000
0.000000 0.000000 0.000000
-6066.089119 1.771187 0.000000
1.771187 -6061.448089 0.000000
0.000000 0.000000 0.000000
-6366.951821 1.137438 0.000000
1.137438 -6361.716813 0.000000
0.000000 0.000000 0.000000
-6655.026068 0.489132 0.000000
0.489132 -6649.195097 0.000000
0.000000 0.000000 0.000000
-6932.288344 -0.179706 0.000000
-0.179706 -6925.858624 0.000000
0.000000 0.000000 0.000000
-7191.473236 -0.858433 0.000000
-0.858433 -7184.440056 0.000000
0.000000 0.000000 0.000000
-7440.356723 -1.553994 0.000000
-1.553994 -7432.714267 0.000000
0.000000 0.000000 0.000000
-7673.433712 -2.267029 0.000000
-2.267029 -7665.167632 0.000000
0.000000 0.000000 0.000000
-7881.072609 -2.993448 0.000000
-2.993448 -7872.156351 0.000000
0.000000 0.000000 0.000000
-8073.068323 -3.744116 0.000000
-3.744116 -8063.475146 0.000000
0.000000 0.000000 0.000000
-8232.104906 -4.515749 0.000000
-4.515749 -8221.780107 0.000000
0.000000 0.000000 0.000000
-8365.297458 -5.309707 0.000000
-5.309707 -8354.196833 0.000000
0.000000 0.000000 0.000000
-317.713065 10.584896 0.000000
10.584896 -318.392045 0.000000
0.000000 0.000000 0.000000
-662.082640 10.188032 0.000000
10.188032 -662.929516 0.000000
0.000000 0.000000 0.000000
-1008.548635 9.787277 0.000000
9.787277 -1009.485560 0.000000
0.000000 0.000000 0.000000
-1359.074130 9.378491 0.000000
9.378491 -1360.017429 0.000000
0.000000 0.000000 0.000000
-1709.517239 8.964138 0.000000
8.964138 -1710.399185 0.000000
0.000000 0.000000 0.000000
-2064.461315 8.538206 0.000000
8.538206 -2065.209209 0.000000
0.000000 0.000000 0.000000
-2420.145849 8.102779 0.000000
8.102779 -2420.704991 0.000000
0.000000 0.000000 0.000000
-2778.467389 7.655100 0.000000
7.655100 -2778.774022 0.000000
0.000000 0.000000 0.000000
-3137.187272 7.193776 0.000000
7.193776 -3137.195607 0.000000
0.000000 0.000000 0.000000
-3496.708514 6.719551 0.000000
6.719551 -3496.365759 0.000000
0.000000 0.000000 0.000000
-3856.346929 6.228842 0.000000
6.228842 -3855.614796 0.000000
0.000000 0.000000 0.000000
-4213.484145 5.725127 0.000000
5.725127 -4212.323472 0.000000
0.000000 0.000000 0.000000
-4569.442236 5.204515 0.000000
5.204515 -4567.817725 0.000000
0.000000 0.000000 0.000000
-4920.182660 4.671147 0.000000
4.671147 -4918.072337 0.000000
0.000000 0.000000 0.000000
-5270.646173 4.117579 0.000000
4.117579 -5268.024104 0.000000
0.000000 0.000000 0.000000
-5609.429168 3.555404 0.000000
3.555404 -5606.284924 0.000000
0.000000 0.000000 0.000000
-5947.050736 2.970691 0.000000
2.970691 -5943.363093 0.000000
0.000000 0.000000 0.000000
-6272.860906 2.377099 0.000000
2.377099 -6268.626984 0.000000
0.000000 0.000000 0.000000
-6591.460865 1.767175 0.000000
1.767175 -6586.667752 0.000000
0.000000 0.000000 0.000000
-6902.239207 1.140760 0.000000
1.140760 -6896.892014 0.000000
0.000000 0.000000 0.000000
-7200.225098 0.502834 0.000000
0.502834 -7194.317691 0.000000
0.000000 0.000000 0.000000
-7488.468645 -0.151319 0.000000
-0.151319 -7481.999102 0.000000
0.000000 0.000000 0.000000
-7764.546839 -0.823864 0.000000
-0.823864 -7757.506050 0.000000
0.000000 0.000000 0.000000
-8022.232007 -1.507835 0.000000
-1.507835 -8014.608922 0.000000
0.000000 0.000000 0.000000
-8269.358807 -2.212881 0.000000
-2.212881 -8261.143021 0.000000
0.000000 0.000000 0.000000
-8493.952309 -2.933153 0.000000
-2.933153 -8485.114687 0.000000
0.000000 0.000000 0.000000
-8704.800440 -3.677647 0.000000
-3.677647 -8695.322113 0.000000
0.000000 0.000000 0.000000
-8884.631647 -4.447235 0.000000
-4.447235 -8874.463760 0.000000
0.000000 0.000000 0.000000
-9037.142445 -5.246112 0.000000
-5.246112 -9026.234214 0.000000
0.000000 0.000000 0.000000
-613.108143 10.730680 0.000000
10.730680 -613.601861 0.000000
0.000000 0.000000 0.000000
-979.503604 10.314059 0.000000
10.314059 -980.124098 0.000000
0.000000 0.000000 0.000000
-1347.995310 9.893281 0.000000
9.893281 -1348.663086 0.000000
0.000000 0.000000 0.000000
-1716.636972 9.468847 0.000000
9.468847 -1717.284611 0.000000
0.000000 0.000000 0.000000
-2087.729644 9.036074 0.000000
9.036074 -2088.286115 0.000000
0.000000 0.000000 0.000000
-2459.348062 8.594984 0.000000
8.594984 -2459.760403 0.000000
0.000000 0.000000 0.000000
-2831.967852 8.144309 0.000000
8.144309 -2832.175510 0.000000
0.000000 0.000000 0.000000
-3205.654656 7.681889 0.000000
7.681889 -3205.611108 0.000000
0.000000 0.000000 0.000000
-3578.875675 7.209305 0.000000
7.209305 -3578.529483 0.000000
0.000000 0.000000 0.000000
-3952.352912 6.722745 0.000000
6.722745 -3951.664204 0.000000
0.000000 0.000000 0.000000
-4322.832246 6.226003 0.000000
6.226003 -4321.761697 0.000000
0.000000 0.000000 0.000000
-4692.238969 5.714124 0.000000
5.714124 -4690.753554 0.000000
0.000000 0.000000 0.000000
-5057.421932 5.189696 0.000000
5.189696 -5055.496544 0.000000
0.000000 0.000000 0.000000
-5417.927671 4.652009 0.000000
4.652009 -5415.533728 0.000000
0.000000 0.000000 0.000000
-5772.872581 4.102154 0.000000
4.102154 -5769.995819 0.000000
0.000000 0.000000 0.000000
-6125.420786 3.538056 0.000000
3.538056 -6122.040723 0.000000
0.000000 0.000000 0.000000
-6467.362113 2.964847 0.000000
2.964847 -6463.472982 0.000000
0.000000 0.000000 0.000000
-6805.803198 2.373143 0.000000
2.373143 -6801.396460 0.000000
0.000000 0.000000 0.000000
-7132.998632 1.771752 0.000000
1.771752 -7128.067425 0.000000
0.000000 0.000000 0.000000
-7451.925473 1.156430 0.000000
1.156430 -7446.467593 0.000000
0.000000 0.000000 0.000000
-7763.343646 0.526409 0.000000
0.526409 -7757.354189 0.000000
0.000000 0.000000 0.000000
-8061.509616 -0.114240 0.000000
-0.114240 -8054.988073 0.000000
0.000000 0.000000 0.000000
-8349.936646 -0.773415 0.000000
-0.773415 -8342.878525 0.000000
0.000000 0.000000 0.000000
-8623.022540 -1.450498 0.000000
-1.450498 -8615.415414 0.000000
0.000000 0.000000 0.000000
-8882.889664 -2.147662 0.000000
-2.147662 -8874.725155 0.000000
0.000000 0.000000 0.000000
-9120.845095 -2.865870 0.000000
-2.865870 -9112.090727 0.000000
0.000000 0.000000 0.000000
-9348.198227 -3.609704 0.000000
-3.609704 -9338.835794 0.000000
0.000000 0.000000 0.000000
-9548.615685 -4.376238 0.000000
-4.376238 -9538.601681 0.000000
0.000000 0.000000 0.000000
-9727.088220 -5.177126 0.000000
-5.177126 -9716.370711 0.000000
0.000000 0.000000 0.000000
-945.533739 10.848464 0.000000
10.848464 -945.849751 0.000000
0.000000 0.000000 0.000000
-1332.470105 10.415790 0.000000
10.415790 -1332.866333 0.000000
0.000000 0.000000 0.000000
-1718.438696 9.981143 0.000000
9.981143 -1718.850235 0.000000
0.000000 0.000000 0.000000
-2106.054649 9.539673 0.000000
9.539673 -2106.416360 0.000000
0.000000 0.000000 0.000000
-2492.731883 9.093126 0.000000
9.093126 -2492.987567 0.000000
0.000000 0.000000 0.000000
-2881.103734 8.637294 0.000000
8.637294 -2881.198067 0.000000
0.000000 0.000000 0.000000
-3268.088695 8.174218 0.000000
8.174218 -3267.972547 0.000000
0.000000 0.000000 0.000000
-3655.888457 7.700841 0.000000
7.700841 -3655.514032 0.000000
0.000000 0.000000 0.000000
-4041.705392 7.217383 0.000000
7.217383 -4041.031710 0.000000
0.000000 0.000000 0.000000
-4425.565318 6.723750 0.000000
6.723750 -4424.553948 0.000000
0.000000 0.000000 0.000000
-4808.177768 6.217776 0.000000
6.217776 -4806.794966 0.000000
0.000000 0.000000 0.000000
-5186.383850 5.702930 0.000000
5.702930 -5184.600687 0.000000
0.000000 0.000000 0.000000
-5561.924364 5.176896 0.000000
5.176896 -5559.712276 0.000000
0.000000 0.000000 0.000000
-5933.173906 4.639459 0.000000
4.639459 -5930.515945 0.000000
0.000000 0.000000 0.000000
-6296.951260 4.092493 0.000000
4.092493 -6293.825233 0.000000
0.000000 0.000000 0.000000
-6655.658737 3.532342 0.000000
3.532342 -6652.059425 0.000000
0.000000 0.000000 0.000000
-7007.967462 2.963577 0.000000
2.963577 -7003.878860 0.000000
0.000000 0.000000 0.000000
-7352.942193 2.383893 0.000000
2.383893 -7348.364194 0.000000
0.000000 0.000000 0.000000
-7690.127213 1.791987 0.000000
1.791987 -7685.053153 0.000000
0.000000 0.000000 0.000000
-8019.059251 1.186845 0.000000
1.186845 -8013.488060 0.000000
0.000000 0.000000 0.000000
-8336.860129 0.567349 0.000000
0.567349 -8330.791344 0.000000
0.000000 0.000000 0.000000
-8647.367977 -0.068770 0.000000
-0.068770 -8640.796754 0.000000
0.000000 0.000000 0.000000
-8947.274279 -0.718644 0.000000
-0.718644 -8940.198898 0.000000
0.000000 0.000000 0.000000
-9233.733512 -1.386913 0.000000
-1.386913 -9226.140327 0.000000
0.000000 0.000000 0.000000
-9511.851563 -2.076152 0.000000
-2.076152 -9503.732750 0.000000
0.000000 0.000000 0.000000
-9768.447308 -2.787296 0.000000
-2.787296 -9759.773057 0.000000
0.000000 0.000000 0.000000
-10012.614283 -3.528037 0.000000
-3.528037 -10003.365131 0.000000
0.000000 0.000000 0.000000
-10232.728754 -4.297466 0.000000
-4.297466 -10222.865571 0.000000
0.000000 0.000000 0.000000
-10429.802350 -5.101036 0.000000
-5.101036 -10419.280251 0.000000
0.000000 0.000000 0.000000
-1312.717505 10.945581 0.000000
10.945581 -1312.853774 0.000000
0.000000 0.000000 0.000000
-1716.106609 10.500391 0.000000
10.500391 -1716.289275 0.000000
0.000000 0.000000 0.000000
-2121.111638 10.049620 0.000000
10.049620 -2121.279965 0.000000
0.000000 0.000000 0.000000
-2523.165854 9.596610 0.000000
9.596610 -2523.261517 0.000000
0.000000 0.000000 0.000000
-2926.658220 9.135864 0.000000
9.135864 -2926.629886 0.000000
0.000000 0.000000 0.000000
-3328.160164 8.669512 0.000000
8.669512 -3327.957746 0.000000
0.000000 0.000000 0.000000
-3729.686153 8.194866 0.000000
8.194866 -3729.264562 0.000000
0.000000 0.000000 0.000000
-4128.898689 7.712217 0.000000
7.712217 -4128.217183 0.000000
0.000000 0.000000 0.000000
-4526.798530 7.221682 0.000000
7.221682 -4525.818129 0.000000
0.000000 0.000000 0.000000
-4922.671684 6.721075 0.000000
6.721075 -4921.358127 0.000000
0.000000 0.000000 0.000000
-5313.175969 6.214201 0.000000
6.214201 -5311.496812 0.000000
0.000000 0.000000 0.000000
-5701.924963 5.694843 0.000000
5.694843 -5699.855283 0.000000
0.000000 0.000000 0.000000
-6083.509762 5.169686 0.000000
5.169686 -6081.027261 0.000000
0.000000 0.000000 0.000000
-6462.314039 4.633466 0.000000
4.633466 -6459.400399 0.000000
0.000000 0.000000 0.000000
-6835.112454 4.089520 0.000000
4.089520 -6831.753581 0.000000
0.000000 0.000000 0.000000
-7200.030480 3.536651 0.000000
3.536651 -7196.215442 0.000000
0.000000 0.000000 0.000000
-7559.435443 2.972731 0.000000
2.972731 -7555.155719 0.000000
0.000000 0.000000 0.000000
-7912.212333 2.400070 0.000000
2.400070 -7907.467130 0.000000
0.000000 0.000000 0.000000
-8258.004561 1.816369 0.000000
1.816369 -8252.789290 0.000000
0.000000 0.000000 0.000000
-8596.976412 1.221982 0.000000
1.221982 -8591.294795 0.000000
0.000000 0.000000 0.000000
-8928.879836 0.614402 0.000000
0.614402 -8922.725451 0.000000
0.000000 0.000000 0.000000
-9248.507353 -0.007896 0.000000
-0.007896 -9241.882994 0.000000
0.000000 0.000000 0.000000
-9562.833495 -0.650167 0.000000
-0.650167 -9555.733805 0.000000
0.000000 0.000000 0.000000
-9862.797401 -1.310060 0.000000
-1.310060 -9855.211545 0.000000
0.000000 0.000000 0.000000
-10154.934567 -1.995248 0.000000
-1.995248 -10146.857794 0.000000
0.000000 0.000000 0.000000
-10428.351601 -2.703581 0.000000
-2.703581 -10419.758293 0.000000
0.000000 0.000000 0.000000
-10690.192821 -3.441656 0.000000
-3.441656 -10681.063752 0.000000
0.000000 0.000000 0.000000
-10931.207154 -4.213933 0.000000
-4.213933 -10921.506626 0.000000
0.000000 0.000000 0.000000
-11147.904497 -5.018835 0.000000
-5.018835 -11137.591501 0.000000
0.000000 0.000000 0.000000
-1711.290698 11.020785 0.000000
11.020785 -1711.255075 0.000000
0.000000 0.000000 0.000000
-2132.088102 10.562663 0.000000
10.562663 -2132.065515 0.000000
0.000000 0.000000 0.000000
-2550.612429 10.102533 0.000000
10.102533 -2550.549447 0.000000
0.000000 0.000000 0.000000
-2968.241196 9.637803 0.000000
9.637803 -2968.085012 0.000000
0.000000 0.000000 0.000000
-3385.577996 9.167349 0.000000
9.167349 -3385.282089 0.000000
0.000000 0.000000 0.000000
-3800.234476 8.691506 0.000000
8.691506 -3799.753180 0.000000
0.000000 0.000000 0.000000
-4213.363462 8.208572 0.000000
8.208572 -4212.657183 0.000000
0.000000 0.000000 0.000000
-4624.145758 7.719097 0.000000
7.719097 -4623.174564 0.000000
0.000000 0.000000 0.000000
-5031.655007 7.222240 0.000000
7.222240 -5030.384654 0.000000
0.000000 0.000000 0.000000
-5435.895839 6.718613 0.000000
6.718613 -5434.295797 0.000000
0.000000 0.000000 0.000000
-5837.267942 6.206525 0.000000
6.206525 -5835.310914 0.000000
0.000000 0.000000 0.000000
-6232.134409 5.689304 0.000000
5.689304 -6229.795616 0.000000
0.000000 0.000000 0.000000
-6623.838898 5.162519 0.000000
5.162519 -6621.098024 0.000000
0.000000 0.000000 0.000000
-7006.511905 4.631494 0.000000
4.631494 -7003.354838 0.000000
0.000000 0.000000 0.000000
-7386.660099 4.091721 0.000000
4.091721 -7383.073142 0.000000
0.000000 0.000000 0.000000
-7761.067735 3.544815 0.000000
3.544815 -7757.043944 0.000000
0.000000 0.000000 0.000000
-8126.159809 2.991308 0.000000
2.991308 -8121.693401 0.000000
0.000000 0.000000 0.000000
-8487.348220 2.426430 0.000000
2.426430 -8482.437358 0.000000
0.000000 0.000000 0.000000
-8838.835607 1.854472 0.000000
1.854472 -8833.477648 0.000000
0.000000 0.000000 0.000000
-9186.556862 1.268146 0.000000
1.268146 -9180.756997 0.000000
0.000000 0.000000 0.000000
-9526.533611 0.670629 0.000000
0.670629 -9520.292315 0.000000
0.000000 0.000000 0.000000
-9861.729166 0.056147 0.000000
0.056147 -9855.045650 0.000000
0.000000 0.000000 0.000000
-10187.773402 -0.575923 0.000000
-0.575923 -10180.648834 0.000000
0.000000 0.000000 0.000000
-10502.486270 -1.229623 0.000000
-1.229623 -10494.912320 0.000000
0.000000 0.000000 0.000000
-10809.994993 -1.908372 0.000000
-1.908372 -10801.964073 0.000000
0.000000 0.000000 0.000000
-11100.983698 -2.613723 0.000000
-2.613723 -11092.475194 0.000000
0.000000 0.000000 0.000000
-11380.365760 -3.350071 0.000000
-3.350071 -11371.359541 0.000000
0.000000 0.000000 0.000000
-11642.420331 -4.120419 0.000000
-4.120419 -11632.886840 0.000000
0.000000 0.000000 0.000000
-11882.857932 -4.929773 0.000000
-4.929773 -11872.758289 0.000000
0.000000 0.000000 0.000000
-2140.329331 11.075681 0.000000
11.075681 -2140.121461 0.000000
0.000000 0.000000 0.000000
-2576.000892 10.608013 0.000000
10.608013 -2575.781845 0.000000
0.000000 0.000000 0.000000
-3008.713866 10.138034 0.000000
10.138034 -3008.428947 0.000000
0.000000 0.000000 0.000000
-3439.640883 9.664001 0.000000
9.664001 -3439.244971 0.000000
0.000000 0.000000 0.000000
-3867.737895 9.186312 0.000000
9.186312 -3867.188637 0.000000
0.000000 0.000000 0.000000
-4294.845873 8.702395 0.000000
8.702395 -4294.102453 0.000000
0.000000 0.000000 0.000000
-4718.820122 8.213339 0.000000
8.213339 -4717.843654 0.000000
0.000000 0.000000 0.000000
-5139.250345 7.718213 0.000000
7.718213 -5138.006526 0.000000
0.000000 0.000000 0.000000
-5556.448012 7.216696 0.000000
7.216696 -5554.905624 0.000000
0.000000 0.000000 0.000000
-5967.978675 6.710881 0.000000
6.710881 -5966.107313 0.000000
0.000000 0.000000 0.000000
-6375.738333 6.198671 0.000000
6.198671 -6373.516172 0.000000
0.000000 0.000000 0.000000
-6777.768892 5.681837 0.000000
5.681837 -6775.170904 0.000000
0.000000 0.000000 0.000000
-7175.057348 5.159887 0.000000
5.159887 -7172.069146 0.000000
0.000000 0.000000 0.000000
-7567.429692 4.631907 0.000000
4.631907 -7564.032226 0.000000
0.000000 0.000000 0.000000
-7951.499404 4.100373 0.000000
4.100373 -7947.687972 0.000000
0.000000 0.000000 0.000000
-8331.141450 3.562128 0.000000
3.562128 -8326.910021 0.000000
0.000000 0.000000 0.000000
-8705.185658 3.017586 0.000000
3.017586 -8700.528890 0.000000
0.000000 0.000000 0.000000
-9074.083038 2.463828 0.000000
2.463828 -9069.006363 0.000000
0.000000 0.000000 0.000000
-9435.688233 1.900497 0.000000
1.900497 -9430.188493 0.000000
0.000000 0.000000 0.000000
-9792.448178 1.324107 0.000000
1.324107 -9786.533510 0.000000
0.000000 0.000000 0.000000
-10140.311231 0.735124 0.000000
0.735124 -10133.982660 0.000000
0.000000 0.000000 0.000000
-10483.538440 0.128062 0.000000
0.128062 -10476.798856 0.000000
0.000000 0.000000 0.000000
-10820.587361 -0.496002 0.000000
-0.496002 -10813.440020 0.000000
0.000000 0.000000 0.000000
-11151.258475 -1.143653 0.000000
-1.143653 -11143.694058 0.000000
0.000000 0.000000 0.000000
-11473.870122 -1.816307 0.000000
-1.816307 -11465.886429 0.000000
0.000000 0.000000 0.000000
-11783.107357 -2.517728 0.000000
-2.517728 -11774.685732 0.000000
0.000000 0.000000 0.000000
-12083.067776 -3.253941 0.000000
-3.253941 -12074.188923 0.000000
0.000000 0.000000 0.000000
-12363.229054 -4.022678 0.000000
-4.022678 -12353.872493 0.000000
0.000000 0.000000 0.000000
-12627.676516 -4.836337 0.000000
-4.836337 -12617.804663 0.000000
0.000000 0.000000 0.000000
-2599.345676 11.116559 0.000000
11.116559 -2598.978182 0.000000
0.000000 0.000000 0.000000
-3048.223316 10.639092 0.000000
10.639092 -3047.814495 0.000000
0.000000 0.000000 0.000000
-3492.575212 10.161319 0.000000
10.161319 -3492.079257 0.000000
0.000000 0.000000 0.000000
-3934.893842 9.680119 0.000000
9.680119 -3934.272877 0.000000
0.000000 0.000000 0.000000
-4374.763677 9.194511 0.000000
9.194511 -4373.974522 0.000000
0.000000 0.000000 0.000000
-4811.544342 8.705241 0.000000
8.705241 -4810.550939 0.000000
0.000000 0.000000 0.000000
-5244.273550 8.211567 0.000000
8.211567 -5243.042807 0.000000
0.000000 0.000000 0.000000
-5673.770777 7.713255 0.000000
7.713255 -5672.268664 0.000000
0.000000 0.000000 0.000000
-6098.117124 7.210594 0.000000
7.210594 -6096.313958 0.000000
0.000000 0.000000 0.000000
-6517.953455 6.704063 0.000000
6.704063 -6515.822213 0.000000
0.000000 0.000000 0.000000
-6933.017251 6.193097 0.000000
6.193097 -6930.536130 0.000000
0.000000 0.000000 0.000000
-7341.193301 5.679783 0.000000
5.679783 -7338.342754 0.000000
0.000000 0.000000 0.000000
-7744.292450 5.161081 0.000000
5.161081 -7741.057236 0.000000
0.000000 0.000000 0.000000
-8139.304880 4.640343 0.000000
4.640343 -8135.674285 0.000000
0.000000 0.000000 0.000000
-8530.200291 4.113224 0.000000
4.113224 -8526.166813 0.000000
0.000000 0.000000 0.000000
-8915.051147 3.582493 0.000000
3.582493 -8910.611435 0.000000
0.000000 0.000000 0.000000
-9293.638411 3.046576 0.000000
3.046576 -9288.794828 0.000000
0.000000 0.000000 0.000000
-9668.201199 2.503430 0.000000
2.503430 -9662.957988 0.000000
0.000000 0.000000 0.000000
-10036.651980 1.951888 0.000000
1.951888 -10031.011631 0.000000
0.000000 0.000000 0.000000
-10403.150037 1.388342 0.000000
1.388342 -10397.119770 0.000000
0.000000 0.000000 0.000000
-10764.776446 0.809232 0.000000
0.809232 -10758.360707 0.000000
0.000000 0.000000 0.000000
-11120.216689 0.213343 0.000000
0.213343 -11113.422877 0.000000
0.000000 0.000000 0.000000
-11471.265352 -0.406056 0.000000
-0.406056 -11464.092970 0.000000
0.000000 0.000000 0.000000
-11813.114007 -1.047051 0.000000
-1.047051 -11805.564092 0.000000
0.000000 0.000000 0.000000
-12150.591894 -1.717472 0.000000
-1.717472 -12142.660721 0.000000
0.000000 0.000000 0.000000
-12477.002175 -2.417394 0.000000
-2.417394 -12468.674508 0.000000
0.000000 0.000000 0.000000
-12790.405996 -3.150297 0.000000
-3.150297 -12781.666445 0.000000
0.000000 0.000000 0.000000
-13095.014587 -3.920483 0.000000
-3.920483 -13085.837164 0.000000
0.000000 0.000000 0.000000
-13382.302444 -4.729886 0.000000
-4.729886 -13372.660637 0.000000
0.000000 0.000000 0.000000
-3087.746528 11.140338 0.000000
11.140338 -3087.219945 0.000000
0.000000 0.000000 0.000000
-3546.006484 10.658657 0.000000
10.658657 -3545.415133 0.000000
0.000000 0.000000 0.000000
-4001.639772 10.174662 0.000000
10.174662 -4000.944903 0.000000
0.000000 0.000000 0.000000
-4454.572656 9.686614 0.000000
9.686614 -4453.734588 0.000000
0.000000 0.000000 0.000000
-4903.132851 9.196138 0.000000
9.196138 -4902.115785 0.000000
0.000000 0.000000 0.000000
-5348.432871 8.701649 0.000000
8.701649 -5347.202795 0.000000
0.000000 0.000000 0.000000
-5790.236596 8.203710 0.000000
8.203710 -5788.759723 0.000000
0.000000 0.000000 0.000000
-6226.871480 7.702822 0.000000
7.702822 -6225.119450 0.000000
0.000000 0.000000 0.000000
-6657.531027 7.199686 0.000000
7.199686 -6655.475549 0.000000
0.000000 0.000000 0.000000
-7083.351024 6.692659 0.000000
6.692659 -7080.967836 0.000000
0.000000 0.000000 0.000000
-7501.903488 6.184965 0.000000
6.184965 -7499.171193 0.000000
0.000000 0.000000 0.000000
-7916.111994 5.674168 0.000000
5.674168 -7913.014854 0.000000
0.000000 0.000000 0.000000
-8322.492812 5.162645 0.000000
5.162645 -8319.021000 0.000000
0.000000 0.000000 0.000000
-8724.035948 4.648035 0.000000
4.648035 -8720.175767 0.000000
0.000000 0.000000 0.000000
-9119.324921 4.131197 0.000000
4.131197 -9115.074678 0.000000
0.000000 0.000000 0.000000
-9507.600309 3.611184 0.000000
3.611184 -9502.956738 0.000000
0.000000 0.000000 0.000000
-9892.642822 3.084919 0.000000
3.084919 -9887.610192 0.000000
0.000000 0.000000 0.000000
-10274.320674 2.553079 0.000000
2.553079 -10268.905202 0.000000
0.000000 0.000000 0.000000
-10651.383023 2.010640 0.000000
2.010640 -10645.594877 0.000000
0.000000 0.000000 0.000000
-11024.672533 1.456654 0.000000
1.456654 -11018.522805 0.000000
0.000000 0.000000 0.000000
-11393.724642 0.888081 0.000000
0.888081 -11387.222688 0.000000
0.000000 0.000000 0.000000
-11761.762467 0.300034 0.000000
0.300034 -11754.914257 0.000000
0.000000 0.000000 0.000000
-12124.155339 -0.309721 0.000000
-0.309721 -12116.968226 0.000000
0.000000 0.000000 0.000000
-12482.534490 -0.945535 0.000000
-0.945535 -12475.006649 0.000000
0.000000 0.000000 0.000000
-12835.899468 -1.610641 0.000000
-1.610641 -12828.026220 0.000000
0.000000 0.000000 0.000000
-13180.622445 -2.308053 0.000000
-2.308053 -13172.397422 0.000000
0.000000 0.000000 0.000000
-13515.348636 -3.040184 0.000000
-3.040184 -13506.748599 0.000000
0.000000 0.000000 0.000000
-13837.455221 -3.810967 0.000000
-3.810967 -13828.461462 0.000000
0.000000 0.000000 0.000000
-14144.754569 -4.623035 0.000000
-4.623035 -14135.351109 0.000000
0.000000 0.000000 0.000000
-3598.717675 11.149807 0.000000
11.149807 -3598.035748 0.000000
0.000000 0.000000 0.000000
-4067.073486 10.663529 0.000000
10.663529 -4066.306128 0.000000
0.000000 0.000000 0.000000
-4533.520553 10.173770 0.000000
10.173770 -4532.633151 0.000000
0.000000 0.000000 0.000000
-4994.866760 9.682187 0.000000
9.682187 -4993.825105 0.000000
0.000000 0.000000 0.000000
-5452.378331 9.187233 0.000000
9.187233 -5451.146055 0.000000
0.000000 0.000000 0.000000
-5905.391128 8.689625 0.000000
8.689625 -5903.933851 0.000000
0.000000 0.000000 0.000000
-6353.234870 8.190013 0.000000
8.190013 -6351.524957 0.000000
0.000000 0.000000 0.000000
-6795.656633 7.687975 0.000000
7.687975 -6793.664758 0.000000
0.000000 0.000000 0.000000
-7232.251568 7.184827 0.000000
7.184827 -7229.952196 0.000000
0.000000 0.000000 0.000000
-7662.353206 6.680200 0.000000
6.680200 -7659.725337 0.000000
0.000000 0.000000 0.000000
-8084.951128 6.175292 0.000000
6.175292 -8081.973488 0.000000
0.000000 0.000000 0.000000
-8501.736307 5.670334 0.000000
5.670334 -8498.396008 0.000000
0.000000 0.000000 0.000000
-8913.913874 5.165305 0.000000
5.165305 -8910.199738 0.000000
0.000000 0.000000 0.000000
-9317.188603 4.661475 0.000000
4.661475 -9313.094078 0.000000
0.000000 0.000000 0.000000
-9717.849084 4.153811 0.000000
4.153811 -9713.376319 0.000000
0.000000 0.000000 0.000000
-10111.610941 3.645570 0.000000
3.645570 -10106.759266 0.000000
0.000000 0.000000 0.000000
-10502.101121 3.129789 0.000000
3.129789 -10496.879082 0.000000
0.000000 0.000000 0.000000
-10886.972137 2.609082 0.000000
2.609082 -10881.390699 0.000000
0.000000 0.000000 0.000000
-11269.573391 2.078256 0.000000
2.078256 -11263.643986 0.000000
0.000000 0.000000 0.000000
-11652.321090 1.534404 0.000000
1.534404 -11646.056543 0.000000
0.000000 0.000000 0.000000
-12031.444378 0.975105 0.000000
0.975105 -12024.856672 0.000000
0.000000 0.000000 0.000000
-12410.706957 0.394667 0.000000
0.394667 -12403.809236 0.000000
0.000000 0.000000 0.000000
-12786.353226 -0.207252 0.000000
-0.207252 -12779.151002 0.000000
0.000000 0.000000 0.000000
-13160.810172 -0.839037 0.000000
-0.839037 -13153.305293 0.000000
0.000000 0.000000 0.000000
-13527.161048 -1.498367 0.000000
-1.498367 -13519.353999 0.000000
0.000000 0.000000 0.000000
-13890.900625 -2.194236 0.000000
-2.194236 -13882.783168 0.000000
0.000000 0.000000 0.000000
-14241.894038 -2.926756 0.000000
-2.926756 -14233.448969 0.000000
0.000000 0.000000 0.000000
-14579.389584 -3.694749 0.000000
-3.694749 -14570.601798 0.000000
0.000000 0.000000 0.000000
-14912.902849 -4.509581 0.000000
-4.509581 -14903.752111 0.000000
0.000000 0.000000 0.000000
-4133.864321 11.146430 0.000000
11.146430 -4133.028371 0.000000
0.000000 0.000000 0.000000
-4611.707205 10.655352 0.000000
10.655352 -4610.769967 0.000000
0.000000 0.000000 0.000000
-5085.688496 10.162181 0.000000
10.162181 -5084.618019 0.000000
0.000000 0.000000 0.000000
-5555.660724 9.666826 0.000000
9.666826 -5554.420064 0.000000
0.000000 0.000000 0.000000
-6020.709811 9.169181 0.000000
9.169181 -6019.267254 0.000000
0.000000 0.000000 0.000000
-6479.112481 8.670339 0.000000
8.670339 -6477.438183 0.000000
0.000000 0.000000 0.000000
-6933.472776 8.168646 0.000000
8.168646 -6931.536212 0.000000
0.000000 0.000000 0.000000
-7380.072130 7.667863 0.000000
7.667863 -7377.846079 0.000000
0.000000 0.000000 0.000000
-7821.029965 7.166718 0.000000
7.166718 -7818.491894 0.000000
0.000000 0.000000 0.000000
-8255.199363 6.666313 0.000000
6.666313 -8252.328341 0.000000
0.000000 0.000000 0.000000
-8682.198838 6.166908 0.000000
6.166908 -8678.977652 0.000000
0.000000 0.000000 0.000000
-9100.898186 5.668777 0.000000
5.668777 -9097.311898 0.000000
0.000000 0.000000 0.000000
-9513.946223 5.171226 0.000000
5.171226 -9509.991313 0.000000
0.000000 0.000000 0.000000
-9920.964428 4.674777 0.000000
4.674777 -9916.636587 0.000000
0.000000 0.000000 0.000000
-10322.929142 4.178729 0.000000
4.178729 -10318.231812 0.000000
0.000000 0.000000 0.000000
-10719.878279 3.680651 0.000000
3.680651 -10714.818548 0.000000
0.000000 0.000000 0.000000
-11113.531316 3.179918 0.000000
3.179918 -11108.119692 0.000000
0.000000 0.000000 0.000000
-11506.632606 2.671467 0.000000
2.671467 -11500.881368 0.000000
0.000000 0.000000 0.000000
-11898.644239 2.153029 0.000000
2.153029 -11892.569315 0.000000
0.000000 0.000000 0.000000
-12288.613407 1.621088 0.000000
1.621088 -12282.234501 0.000000
0.000000 0.000000 0.000000
-12677.447686 1.070712 0.000000
1.070712 -12670.779241 0.000000
0.000000 0.000000 0.000000
-13067.047090 0.498435 0.000000
0.498435 -13060.102437 0.000000
0.000000 0.000000 0.000000
-13454.181363 -0.098633 0.000000
-0.098633 -13446.972833 0.000000
0.000000 0.000000 0.000000
-13841.101271 -0.725899 0.000000
-0.725899 -13833.633132 0.000000
0.000000 0.000000 0.000000
-14224.506690 -1.384650 0.000000
-1.384650 -14216.775108 0.000000
0.000000 0.000000 0.000000
-14604.483281 -2.077493 0.000000
-2.077493 -14596.486339 0.000000
0.000000 0.000000 0.000000
-14975.904515 -2.808369 0.000000
-2.808369 -14967.627209 0.000000
0.000000 0.000000 0.000000
-15335.787317 -3.575523 0.000000
-3.575523 -15327.202176 0.000000
0.000000 0.000000 0.000000
-15688.570788 -4.385757 0.000000
-4.385757 -15679.668799 0.000000
0.000000 0.000000 0.000000
-4691.074179 11.133224 0.000000
11.133224 -4690.092577 0.000000
0.000000 0.000000 0.000000
-5176.894306 10.637760 0.000000
10.637760 -5175.795317 0.000000
0.000000 0.000000 0.000000
-5658.847149 10.140311 0.000000
10.140311 -5657.597064 0.000000
0.000000 0.000000 0.000000
-6135.299807 9.642037 0.000000
9.642037 -6133.868522 0.000000
0.000000 0.000000 0.000000
-6605.467390 9.142738 0.000000
9.142738 -6603.823232 0.000000
0.000000 0.000000 0.000000
-7071.175203 8.642008 0.000000
8.642008 -7069.287262 0.000000
0.000000 0.000000 0.000000
-7528.608902 8.142513 0.000000
8.142513 -7526.449024 0.000000
0.000000 0.000000 0.000000
-7979.669290 7.642911 0.000000
7.642911 -7977.212408 0.000000
0.000000 0.000000 0.000000
-8423.714093 7.144513 0.000000
7.144513 -8420.937668 0.000000
0.000000 0.000000 0.000000
-8858.887451 6.649834 0.000000
6.649834 -8855.774042 0.000000
0.000000 0.000000 0.000000
-9287.736641 6.156177 0.000000
6.156177 -9284.269875 0.000000
0.000000 0.000000 0.000000
-9709.062666 5.665683 0.000000
5.665683 -9705.234940 0.000000
0.000000 0.000000 0.000000
-10122.828212 5.178663 0.000000
5.178663 -10118.632581 0.000000
0.000000 0.000000 0.000000
-10530.825075 4.692628 0.000000
4.692628 -10526.262589 0.000000
0.000000 0.000000 0.000000
-10934.178317 4.208992 0.000000
4.208992 -10929.253585 0.000000
0.000000 0.000000 0.000000
-11335.849016 3.723705 0.000000
3.723705 -11330.574300 0.000000
0.000000 0.000000 0.000000
-11734.912582 3.235052 0.000000
3.235052 -11729.303271 0.000000
0.000000 0.000000 0.000000
-12131.430198 2.739158 0.000000
2.739158 -12125.506650 0.000000
0.000000 0.000000 0.000000
-12526.158318 2.233227 0.000000
2.233227 -12519.942251 0.000000
0.000000 0.000000 0.000000
-12924.897655 1.711510 0.000000
1.711510 -12918.408458 0.000000
0.000000 0.000000 0.000000
-13325.495737 1.171263 0.000000
1.171263 -13318.753051 0.000000
0.000000 0.000000 0.000000
-13725.678005 0.608359 0.000000
0.608359 -13718.698152 0.000000
0.000000 0.000000 0.000000
-14128.881381 0.015436 0.000000
0.015436 -14121.677658 0.000000
0.000000 0.000000 0.000000
-14529.516299 -0.605477 0.000000
-0.605477 -14522.092680 0.000000
0.000000 0.000000 0.000000
-14928.814097 -1.263047 0.000000
-1.263047 -14921.169399 0.000000
0.000000 0.000000 0.000000
-15324.227730 -1.955219 0.000000
-1.955219 -15316.359625 0.000000
0.000000 0.000000 0.000000
-15713.824630 -2.685277 0.000000
-2.685277 -15705.715930 0.000000
0.000000 0.000000 0.000000
-16091.686657 -3.455007 0.000000
-3.455007 -16083.316106 0.000000
0.000000 0.000000 0.000000
-16457.779691 -4.263911 0.000000
-4.263911 -16449.144891 0.000000
0.000000 0.000000 0.000000
-5270.561663 11.109753 0.000000
11.109753 -5269.438936 0.000000
0.000000 0.000000 0.000000
-5764.268047 10.610447 0.000000
10.610447 -5763.011661 0.000000
0.000000 0.000000 0.000000
-6250.634617 10.111786 0.000000
10.111786 -6249.213239 0.000000
0.000000 0.000000 0.000000
-6733.105594 9.611034 0.000000
9.611034 -6731.489677 0.000000
0.000000 0.000000 0.000000
-7208.408224 9.110288 0.000000
9.110288 -7206.563364 0.000000
0.000000 0.000000 0.000000
-7677.567548 8.609584 0.000000
8.609584 -7675.469173 0.000000
0.000000 0.000000 0.000000
-8138.147944 8.110403 0.000000
8.110403 -8135.768866 0.000000
0.000000 0.000000 0.000000
-8591.263765 7.612194 0.000000
7.612194 -8588.578219 0.000000
0.000000 0.000000 0.000000
-9034.617612 7.118965 0.000000
7.118965 -9031.604464 0.000000
0.000000 0.000000 0.000000
-9473.650369 6.627434 0.000000
6.627434 -9470.292569 0.000000
0.000000 0.000000 0.000000
-9901.356525 6.143870 0.000000
6.143870 -9897.643789 0.000000
0.000000 0.000000 0.000000
-10323.482789 5.663433 0.000000
5.663433 -10319.406284 0.000000
0.000000 0.000000 0.000000
-10738.749112 5.188154 0.000000
5.188154 -10734.305757 0.000000
0.000000 0.000000 0.000000
-11149.564128 4.715732 0.000000
4.715732 -11144.760155 0.000000
0.000000 0.000000 0.000000
-11554.740618 4.244418 0.000000
4.244418 -11549.584306 0.000000
0.000000 0.000000 0.000000
-11954.995545 3.773324 0.000000
3.773324 -11949.505780 0.000000
0.000000 0.000000 0.000000
-12355.323776 3.297945 0.000000
3.297945 -12349.520532 0.000000
0.000000 0.000000 0.000000
-12757.088702 2.815514 0.000000
2.815514 -12750.996752 0.000000
0.000000 0.000000 0.000000
-13162.590518 2.321466 0.000000
2.321466 -13156.231684 0.000000
0.000000 0.000000 0.000000
-13568.279729 1.811957 0.000000
1.811957 -13561.680409 0.000000
0.000000 0.000000 0.000000
-13978.562165 1.280518 0.000000
1.280518 -13971.750475 0.000000
0.000000 0.000000 0.000000
-14389.937668 0.725218 0.000000
0.725218 -14382.928076 0.000000
0.000000 0.000000 0.000000
-14806.020172 0.139225 0.000000
0.139225 -14798.825749 0.000000
0.000000 0.000000 0.000000
-15223.023312 -0.479828 0.000000
-0.479828 -15215.658112 0.000000
0.000000 0.000000 0.000000
-15635.909467 -1.133937 0.000000
-1.133937 -15628.366222 0.000000
0.000000 0.000000 0.000000
-16050.165290 -1.826900 0.000000
-1.826900 -16042.438155 0.000000
0.000000 0.000000 0.000000
-16455.460625 -2.559181 0.000000
-2.559181 -16447.543293 0.000000
0.000000 0.000000 0.000000
-16845.448175 -3.325275 0.000000
-3.325275 -16837.317568 0.000000
0.000000 0.000000 0.000000
-17235.641974 -4.134695 0.000000
-4.134695 -17227.281161 0.000000
0.000000 0.000000 0.000000
-5870.712260 11.074678 0.000000
11.074678 -5869.451952 0.000000
0.000000 0.000000 0.000000
-6368.034841 10.575131 0.000000
10.575131 -6366.624844 0.000000
0.000000 0.000000 0.000000
-6861.798300 10.073836 0.000000
10.073836 -6860.210419 0.000000
0.000000 0.000000 0.000000
-7348.654789 9.571246 0.000000
9.571246 -7346.856793 0.000000
0.000000 0.000000 0.000000
-7827.395126 9.069474 0.000000
9.069474 -7825.359012 0.000000
0.000000 0.000000 0.000000
-8297.374149 8.570144 0.000000
8.570144 -8295.071314 0.000000
0.000000 0.000000 0.000000
-8761.205851 8.071875 0.000000
8.071875 -8758.609814 0.000000
0.000000 0.000000 0.000000
-9215.193094 7.579357 0.000000
7.579357 -9212.278732 0.000000
0.000000 0.000000 0.000000
-9661.707733 7.088900 0.000000
7.088900 -9658.455330 0.000000
0.000000 0.000000 0.000000
-10095.392218 6.608257 0.000000
6.608257 -10091.788453 0.000000
0.000000 0.000000 0.000000
-10524.585822 6.130582 0.000000
6.130582 -10520.617588 0.000000
0.000000 0.000000 0.000000
-10945.453200 5.661091 0.000000
5.661091 -10941.117507 0.000000
0.000000 0.000000 0.000000
-11359.367231 5.197989 0.000000
5.197989 -11354.668852 0.000000
0.000000 0.000000 0.000000
-11767.689110 4.739031 0.000000
4.739031 -11762.638702 0.000000
0.000000 0.000000 0.000000
-12171.505491 4.284356 0.000000
4.284356 -12166.116515 0.000000
0.000000 0.000000 0.000000
-12577.738981 3.826615 0.000000
3.826615 -12572.032352 0.000000
0.000000 0.000000 0.000000
-12981.907956 3.368437 0.000000
3.368437 -12975.907814 0.000000
0.000000 0.000000 0.000000
-13389.045604 2.900119 0.000000
2.900119 -13382.779657 0.000000
0.000000 0.000000 0.000000
-13798.643706 2.418767 0.000000
2.418767 -13792.147575 0.000000
0.000000 0.000000 0.000000
-14210.614761 1.920338 0.000000
1.920338 -14203.914128 0.000000
0.000000 0.000000 0.000000
-14631.207163 1.398553 0.000000
1.398553 -14624.332911 0.000000
0.000000 0.000000 0.000000
-15058.110058 0.845359 0.000000
0.845359 -15051.079809 0.000000
0.000000 0.000000 0.000000
-15481.792885 0.267520 0.000000
0.267520 -15474.628965 0.000000
0.000000 0.000000 0.000000
-15916.286397 -0.352429 0.000000
-0.352429 -15908.990514 0.000000
0.000000 0.000000 0.000000
-16346.522814 -1.006600 0.000000
-1.006600 -16339.094032 0.000000
0.000000 0.000000 0.000000
-16772.900246 -1.697022 0.000000
-1.697022 -16765.336324 0.000000
0.000000 0.000000 0.000000
-17198.271897 -2.429756 0.000000
-2.429756 -17190.555981 0.000000
0.000000 0.000000 0.000000
-17611.751984 -3.195177 0.000000
-3.195177 -17603.850435 0.000000
0.000000 0.000000 0.000000
-18018.354363 -3.996974 0.000000
-3.996974 -18010.259343 0.000000
0.000000 0.000000 0.000000
-6488.466506 11.028671 0.000000
11.028671 -6487.069591 0.000000
0.000000 0.000000 0.000000
-6990.225216 10.527918 0.000000
10.527918 -6988.664772 0.000000
0.000000 0.000000 0.000000
-7488.380893 10.024277 0.000000
10.024277 -7486.628989 0.000000
0.000000 0.000000 0.000000
-7977.391648 9.522217 0.000000
9.522217 -7975.417022 0.000000
0.000000 0.000000 0.000000
-8458.691823 9.021802 0.000000
9.021802 -8456.463878 0.000000
0.000000 0.000000 0.000000
-8932.490875 8.523030 0.000000
8.523030 -8929.980563 0.000000
0.000000 0.000000 0.000000
-9396.031736 8.029252 0.000000
8.029252 -9393.214651 0.000000
0.000000 0.000000 0.000000
-9849.639436 7.540161 0.000000
7.540161 -9846.494608 0.000000
0.000000 0.000000 0.000000
-10291.239222 7.059563 0.000000
7.059563 -10287.746186 0.000000
0.000000 0.000000 0.000000
-10728.632076 6.582787 0.000000
6.582787 -10724.775305 0.000000
0.000000 0.000000 0.000000
-11153.655626 6.117239 0.000000
6.117239 -11149.430686 0.000000
0.000000 0.000000 0.000000
-11569.843403 5.659763 0.000000
5.659763 -11565.249576 0.000000
0.000000 0.000000 0.000000
-11980.436774 5.210434 0.000000
5.210434 -11975.480275 0.000000
0.000000 0.000000 0.000000
-12390.321256 4.766255 0.000000
4.766255 -12385.015710 0.000000
0.000000 0.000000 0.000000
-12795.419921 4.327321 0.000000
4.327321 -12789.786988 0.000000
0.000000 0.000000 0.000000
-13199.047746 3.888934 0.000000
3.888934 -13193.113149 0.000000
0.000000 0.000000 0.000000
-13606.602862 3.443355 0.000000
3.443355 -13600.401066 0.000000
0.000000 0.000000 0.000000
-14014.100501 2.992057 0.000000
2.992057 -14007.668751 0.000000
0.000000 0.000000 0.000000
-14432.888031 2.522811 0.000000
2.522811 -14426.262078 0.000000
0.000000 0.000000 0.000000
-14854.874935 2.034631 0.000000
2.034631 -14848.082182 0.000000
0.000000 0.000000 0.000000
-15285.855190 1.520830 0.000000
1.520830 -15278.932810 0.000000
0.000000 0.000000 0.000000
-15719.662487 0.978618 0.000000
0.978618 -15712.630966 0.000000
0.000000 0.000000 0.000000
-16166.127625 0.396386 0.000000
0.396386 -16159.002880 0.000000
0.000000 0.000000 0.000000
-16610.157702 -0.215568 0.000000
-0.215568 -16602.948270 0.000000
0.000000 0.000000 0.000000
-17057.019477 -0.871404 0.000000
-0.871404 -17049.724016 0.000000
0.000000 0.000000 0.000000
-17503.870076 -1.565752 0.000000
-1.565752 -17496.473865 0.000000
0.000000 0.000000 0.000000
-17946.572829 -2.297361 0.000000
-2.297361 -17939.061404 0.000000
0.000000 0.000000 0.000000
-18372.989466 -3.064665 0.000000
-3.064665 -18365.331736 0.000000
0.000000 0.000000 0.000000
-18788.490302 -3.868560 0.000000
-3.868560 -18780.677658 0.000000
0.000000 0.000000 0.000000
-7120.805730 10.975670 0.000000
10.975670 -7119.275884 0.000000
0.000000 0.000000 0.000000
-7629.408052 10.471270 0.000000
10.471270 -7627.701621 0.000000
0.000000 0.000000 0.000000
-8130.016417 9.967398 0.000000
9.967398 -8128.104727 0.000000
0.000000 0.000000 0.000000
-8621.121146 9.465404 0.000000
9.465404 -8618.968896 0.000000
0.000000 0.000000 0.000000
-9104.447722 8.964288 0.000000
8.964288 -9102.026789 0.000000
0.000000 0.000000 0.000000
-9576.971187 8.467355 0.000000
8.467355 -9574.254418 0.000000
0.000000 0.000000 0.000000
-10037.695402 7.978682 0.000000
7.978682 -10034.657605 0.000000
0.000000 0.000000 0.000000
-10491.012907 7.495203 0.000000
7.495203 -10487.630793 0.000000
0.000000 0.000000 0.000000
-10934.012928 7.020533 0.000000
7.020533 -10930.269225 0.000000
0.000000 0.000000 0.000000
-11362.169318 6.558460 0.000000
6.558460 -11358.054046 0.000000
0.000000 0.000000 0.000000
-11784.411160 6.104535 0.000000
6.104535 -11779.921968 0.000000
0.000000 0.000000 0.000000
-12199.121858 5.660994 0.000000
5.660994 -12194.255740 0.000000
0.000000 0.000000 0.000000
-12608.679317 5.226136 0.000000
5.226136 -12603.453671 0.000000
0.000000 0.000000 0.000000
-13009.291044 4.802514 0.000000
4.802514 -13003.722470 0.000000
0.000000 0.000000 0.000000
-13414.502583 4.377927 0.000000
4.377927 -13408.621548 0.000000
0.000000 0.000000 0.000000
-13818.912197 3.956491 0.000000
3.956491 -13812.754430 0.000000
0.000000 0.000000 0.000000
-14226.766923 3.529734 0.000000
3.529734 -14220.368369 0.000000
0.000000 0.000000 0.000000
-14643.488968 3.091575 0.000000
3.091575 -14636.889543 0.000000
0.000000 0.000000 0.000000
-15068.147031 2.636742 0.000000
2.636742 -15061.391160 0.000000
0.000000 0.000000 0.000000
-15494.684880 2.162653 0.000000
2.162653 -15487.807690 0.000000
0.000000 0.000000 0.000000
-15943.423178 1.652718 0.000000
1.652718 -15936.460369 0.000000
0.000000 0.000000 0.000000
-16388.405301 1.119729 0.000000
1.119729 -16381.380043 0.000000
0.000000 0.000000 0.000000
-16849.276925 0.542295 0.000000
0.542295 -16842.205132 0.000000
0.000000 0.000000 0.000000
-17313.199621 -0.073835 0.000000
-0.073835 -17306.094018 0.000000
0.000000 0.000000 0.000000
-17773.491296 -0.727481 0.000000
-0.727481 -17766.341250 0.000000
0.000000 0.000000 0.000000
-18237.039422 -1.424804 0.000000
-1.424804 -18229.826045 0.000000
0.000000 0.000000 0.000000
-18696.121263 -2.165362 0.000000
-2.165362 -18688.840058 0.000000
0.000000 0.000000 0.000000
-19131.318248 -2.930530 0.000000
-2.930530 -19123.935881 0.000000
0.000000 0.000000 0.000000
-19566.742968 -3.734329 0.000000
-3.734329 -19559.221536 0.000000
0.000000 0.000000 0.000000
-7775.339950 10.915350 0.000000
10.915350 -7773.681801 0.000000
0.000000 0.000000 0.000000
-8284.996987 10.409510 0.000000
10.409510 -8283.149577 0.000000
0.000000 0.000000 0.000000
-8786.817799 9.903475 0.000000
9.903475 -8784.745225 0.000000
0.000000 0.000000 0.000000
-9279.399933 9.399911 0.000000
9.399911 -9277.074177 0.000000
0.000000 0.000000 0.000000
-9761.252579 8.900344 0.000000
8.900344 -9758.642790 0.000000
0.000000 0.000000 0.000000
-10230.946202 8.408187 0.000000
8.408187 -10228.019678 0.000000
0.000000 0.000000 0.000000
-10693.524130 7.920020 0.000000
7.920020 -10690.257655 0.000000
0.000000 0.000000 0.000000
-11139.445091 7.446890 0.000000
7.446890 -11135.818834 0.000000
0.000000 0.000000 0.000000
-11575.890949 6.981642 0.000000
6.981642 -11571.889675 0.000000
0.000000 0.000000 0.000000
-12002.359649 6.530087 0.000000
6.530087 -11997.975130 0.000000
0.000000 0.000000 0.000000
-12421.376125 6.088933 0.000000
6.088933 -12416.606167 0.000000
0.000000 0.000000 0.000000
-12825.508846 5.665229 0.000000
5.665229 -12820.361669 0.000000
0.000000 0.000000 0.000000
-13230.560404 5.247841 0.000000
5.247841 -13225.056528 0.000000
0.000000 0.000000 0.000000
-13632.750065 4.838404 0.000000
4.838404 -13626.912371 0.000000
0.000000 0.000000 0.000000
-14031.557969 4.438244 0.000000
4.438244 -14025.424281 0.000000
0.000000 0.000000 0.000000
-14438.238259 4.033200 0.000000
4.033200 -14431.850230 0.000000
0.000000 0.000000 0.000000
-14846.876021 3.624490 0.000000
3.624490 -14840.275622 0.000000
0.000000 0.000000 0.000000
-15266.263072 3.202706 0.000000
3.202706 -15259.501527 0.000000
0.000000 0.000000 0.000000
-15697.272787 2.761866 0.000000
2.761866 -15690.397539 0.000000
0.000000 0.000000 0.000000
-16140.615047 2.292711 0.000000
2.292711 -16133.661396 0.000000
0.000000 0.000000 0.000000
-16591.320642 1.798609 0.000000
1.798609 -16584.334247 0.000000
0.000000 0.000000 0.000000
-17060.320639 1.258479 0.000000
1.258479 -17053.316031 0.000000
0.000000 0.000000 0.000000
-17528.415934 0.688261 0.000000
0.688261 -17521.420756 0.000000
0.000000 0.000000 0.000000
-18009.579782 0.072615 0.000000
0.072615 -18002.594420 0.000000
0.000000 0.000000 0.000000
-18497.667282 -0.592995 0.000000
-0.592995 -18490.680109 0.000000
0.000000 0.000000 0.000000
-18965.098548 -1.286432 0.000000
-1.286432 -18958.102097 0.000000
0.000000 0.000000 0.000000
-19440.831112 -2.027106 0.000000
-2.027106 -19433.790396 0.000000
0.000000 0.000000 0.000000
-19909.466087 -2.799857 0.000000
-2.799857 -19902.338400 0.000000
0.000000 0.000000 0.000000
-20353.642165 -3.591043 0.000000
-3.591043 -20346.406497 0.000000
0.000000 0.000000 0.000000
-8439.604652 10.845363 0.000000
10.845363 -8437.827014 0.000000
0.000000 0.000000 0.000000
-8955.556710 10.333945 0.000000
10.333945 -8953.571452 0.000000
0.000000 0.000000 0.000000
-9455.621943 9.829379 0.000000
9.829379 -9453.393767 0.000000
0.000000 0.000000 0.000000
-9948.032061 9.327277 0.000000
9.327277 -9945.531861 0.000000
0.000000 0.000000 0.000000
-10429.506729 8.828690 0.000000
8.828690 -10426.700507 0.000000
0.000000 0.000000 0.000000
-10897.935609 8.338062 0.000000
8.338062 -10894.794520 0.000000
0.000000 0.000000 0.000000
-11348.834106 7.861256 0.000000
7.861256 -11345.334824 0.000000
0.000000 0.000000 0.000000
-11795.028598 7.389019 0.000000
7.389019 -11791.154026 0.000000
0.000000 0.000000 0.000000
-12222.113376 6.938024 0.000000
6.938024 -12217.842118 0.000000
0.000000 0.000000 0.000000
-12642.977951 6.498012 0.000000
6.498012 -12638.311268 0.000000
0.000000 0.000000 0.000000
-13049.210585 6.077867 0.000000
6.077867 -13044.150624 0.000000
0.000000 0.000000 0.000000
-13455.510883 5.666388 0.000000
5.666388 -13450.070916 0.000000
0.000000 0.000000 0.000000
-13851.155747 5.271828 0.000000
5.271828 -13845.362018 0.000000
0.000000 0.000000 0.000000
-14244.104878 4.885688 0.000000
4.885688 -14237.989394 0.000000
0.000000 0.000000 0.000000
-14642.831601 4.501526 0.000000
4.501526 -14636.439251 0.000000
0.000000 0.000000 0.000000
-15045.725937 4.118608 0.000000
4.118608 -15039.106019 0.000000
0.000000 0.000000 0.000000
-15456.624217 3.726038 0.000000
3.726038 -15449.830782 0.000000
0.000000 0.000000 0.000000
-15881.641610 3.318034 0.000000
3.318034 -15874.725885 0.000000
0.000000 0.000000 0.000000
-16319.863278 2.888824 0.000000
2.888824 -16312.878252 0.000000
0.000000 0.000000 0.000000
-16769.695103 2.432953 0.000000
2.432953 -16762.684656 0.000000
0.000000 0.000000 0.000000
-17240.488765 1.938055 0.000000
1.938055 -17233.491591 0.000000
0.000000 0.000000 0.000000
-17715.162398 1.410205 0.000000
1.410205 -17708.207344 0.000000
0.000000 0.000000 0.000000
-18209.540188 0.834204 0.000000
0.834204 -18202.632805 0.000000
0.000000 0.000000 0.000000
-18707.309047 0.217309 0.000000
0.217309 -18700.463059 0.000000
0.000000 0.000000 0.000000
-19202.560525 -0.440686 0.000000
-0.440686 -19195.763602 0.000000
0.000000 0.000000 0.000000
-19711.120301 -1.152773 0.000000
-1.152773 -19704.339347 0.000000
0.000000 0.000000 0.000000
-20194.739301 -1.887183 0.000000
-1.887183 -20187.943831 0.000000
0.000000 0.000000 0.000000
-20670.972048 -2.664596 0.000000
-2.664596 -20664.116527 0.000000
0.000000 0.000000 0.000000
-21130.035655 -3.466773 0.000000
-3.466773 -21123.092455 0.000000
0.000000 0.000000 0.000000
-9125.572786 10.757857 0.000000
10.757857 -9123.676326 0.000000
0.000000 0.000000 0.000000
-9634.699991 10.252314 0.000000
10.252314 -9632.573325 0.000000
0.000000 0.000000 0.000000
-10137.538054 9.746555 0.000000
9.746555 -10135.150776 0.000000
0.000000 0.000000 0.000000
-10631.220871 9.242357 0.000000
9.242357 -10628.543450 0.000000
0.000000 0.000000 0.000000
-11104.771221 8.750000 0.000000
8.750000 -11101.766061 0.000000
0.000000 0.000000 0.000000
-11567.100571 8.264811 0.000000
8.264811 -11563.741761 0.000000
0.000000 0.000000 0.000000
-12018.447304 7.790458 0.000000
7.790458 -12014.709003 0.000000
0.000000 0.000000 0.000000
-12451.517988 7.333317 0.000000
7.333317 -12447.376597 0.000000
0.000000 0.000000 0.000000
-12871.346838 6.892146 0.000000
6.892146 -12866.795432 0.000000
0.000000 0.000000 0.000000
-13282.269594 6.467254 0.000000
6.467254 -13277.308160 0.000000
0.000000 0.000000 0.000000
-13681.430324 6.061004 0.000000
6.061004 -13676.064837 0.000000
0.000000 0.000000 0.000000
-14069.571155 5.676286 0.000000
5.676286 -14063.824527 0.000000
0.000000 0.000000 0.000000
-14462.442571 5.299892 0.000000
5.299892 -14456.349581 0.000000
0.000000 0.000000 0.000000
-14849.763501 4.938431 0.000000
4.938431 -14843.362650 0.000000
0.000000 0.000000 0.000000
-15245.822805 4.577400 0.000000
4.577400 -15239.167840 0.000000
0.000000 0.000000 0.000000
-15649.993479 4.215306 0.000000
4.215306 -15643.145430 0.000000
0.000000 0.000000 0.000000
-16065.548703 3.841716 0.000000
3.841716 -16058.560110 0.000000
0.000000 0.000000 0.000000
-16493.925837 3.452118 0.000000
3.452118 -16486.865060 0.000000
0.000000 0.000000 0.000000
-16941.889664 3.032543 0.000000
3.032543 -16934.804634 0.000000
0.000000 0.000000 0.000000
-17403.294435 2.586000 0.000000
2.586000 -17396.237475 0.000000
0.000000 0.000000 0.000000
-17888.044921 2.098744 0.000000
2.098744 -17881.054278 0.000000
0.000000 0.000000 0.000000
-18386.632520 1.568476 0.000000
1.568476 -18379.729800 0.000000
0.000000 0.000000 0.000000
-18890.165890 0.998307 0.000000
0.998307 -18883.368719 0.000000
0.000000 0.000000 0.000000
-19417.112010 0.370589 0.000000
0.370589 -19410.418589 0.000000
0.000000 0.000000 0.000000
-19932.967262 -0.287692 0.000000
-0.287692 -19926.358689 0.000000
0.000000 0.000000 0.000000
-20453.998364 -1.000977 0.000000
-1.000977 -20447.447181 0.000000
0.000000 0.000000 0.000000
-20964.638508 -1.757407 0.000000
-1.757407 -20958.107578 0.000000
0.000000 0.000000 0.000000
-21438.787963 -2.523520 0.000000
-2.523520 -21432.227983 0.000000
0.000000 0.000000 0.000000
-21919.920482 -3.332622 0.000000
-3.332622 -21913.273005 0.000000
0.000000 0.000000 0.000000
-9818.952724 10.670531 0.000000
10.670531 -9816.934521 0.000000
0.000000 0.000000 0.000000
-10330.905713 10.159045 0.000000
10.159045 -10328.640546 0.000000
0.000000 0.000000 0.000000
-10831.244667 9.651132 0.000000
9.651132 -10828.703272 0.000000
0.000000 0.000000 0.000000
-11315.843709 9.151002 0.000000
9.151002 -11312.984743 0.000000
0.000000 0.000000 0.000000
-11790.175988 8.657503 0.000000
8.657503 -11786.970229 0.000000
0.000000 0.000000 0.000000
-12242.862092 8.181567 0.000000
8.181567 -12239.270414 0.000000
0.000000 0.000000 0.000000
-12688.471071 7.714048 0.000000
7.714048 -12684.480049 0.000000
0.000000 0.000000 0.000000
-13107.743025 7.271401 0.000000
7.271401 -13103.327413 0.000000
0.000000 0.000000 0.000000
-13522.271194 6.841209 0.000000
6.841209 -13517.427006 0.000000
0.000000 0.000000 0.000000
-13916.400771 6.439201 0.000000
6.439201 -13911.126308 0.000000
0.000000 0.000000 0.000000
-14303.853532 6.054947 0.000000
6.054947 -14298.167168 0.000000
0.000000 0.000000 0.000000
-14688.212179 5.688008 0.000000
5.688008 -14682.142801 0.000000
0.000000 0.000000 0.000000
-15067.035864 5.341221 0.000000
5.341221 -15060.626047 0.000000
0.000000 0.000000 0.000000
-15452.385720 4.998550 0.000000
4.998550 -15445.689285 0.000000
0.000000 0.000000 0.000000
-15837.903862 4.665565 0.000000
4.665565 -15830.981045 0.000000
0.000000 0.000000 0.000000
-16244.778781 4.320722 0.000000
4.320722 -16237.694348 0.000000
0.000000 0.000000 0.000000
-16656.907682 3.971514 0.000000
3.971514 -16649.732349 0.000000
0.000000 0.000000 0.000000
-17103.112146 3.589571 0.000000
3.589571 -17095.909831 0.000000
0.000000 0.000000 0.000000
-17553.696238 3.190245 0.000000
3.190245 -17546.527096 0.000000
0.000000 0.000000 0.000000
-18036.679232 2.743967 0.000000
2.743967 -18029.583014 0.000000
0.000000 0.000000 0.000000
-18534.495200 2.263921 0.000000
2.263921 -18527.523518 0.000000
0.000000 0.000000 0.000000
-19049.832895 1.736874 0.000000
1.736874 -19043.004663 0.000000
0.000000 0.000000 0.000000
-19581.096566 1.159147 0.000000
1.159147 -19574.422160 0.000000
0.000000 0.000000 0.000000
-20117.078510 0.535525 0.000000
0.535525 -20110.553150 0.000000
0.000000 0.000000 0.000000
-20664.220884 -0.143666 0.000000
-0.143666 -20657.825469 0.000000
0.000000 0.000000 0.000000
-21191.954148 -0.855612 0.000000
-0.855612 -21185.665022 0.000000
0.000000 0.000000 0.000000
-21723.698644 -1.618503 0.000000
-1.618503 -21717.451755 0.000000
0.000000 0.000000 0.000000
-22228.451177 -2.401579 0.000000
-2.401579 -22222.172788 0.000000
0.000000 0.000000 0.000000
-22706.997827 -3.194018 0.000000
-3.194018 -22700.632583 0.000000
0.000000 0.000000 0.000000
-10528.572018 10.568786 0.000000
10.568786 -10526.441895 0.000000
0.000000 0.000000 0.000000
-11033.103561 10.059130 0.000000
10.059130 -11030.705020 0.000000
0.000000 0.000000 0.000000
-11535.665966 9.546689 0.000000
9.546689 -11532.965710 0.000000
0.000000 0.000000 0.000000
-12014.402098 9.049287 0.000000
9.049287 -12011.359551 0.000000
0.000000 0.000000 0.000000
-12477.064253 8.561315 0.000000
8.561315 -12473.641623 0.000000
0.000000 0.000000 0.000000
-12924.910656 8.085908 0.000000
8.085908 -12921.084193 0.000000
0.000000 0.000000 0.000000
-13352.711236 7.632958 0.000000
7.632958 -13348.453142 0.000000
0.000000 0.000000 0.000000
-13766.161309 7.200228 0.000000
7.200228 -13761.451712 0.000000
0.000000 0.000000 0.000000
-14161.607987 6.792688 0.000000
6.792688 -14156.445475 0.000000
0.000000 0.000000 0.000000
-14547.189893 6.407458 0.000000
6.407458 -14541.586137 0.000000
0.000000 0.000000 0.000000
-14920.602593 6.047539 0.000000
6.047539 -14914.577620 0.000000
0.000000 0.000000 0.000000
-15289.305978 5.707260 0.000000
5.707260 -15282.902737 0.000000
0.000000 0.000000 0.000000
-15655.262569 5.384805 0.000000
5.384805 -15648.528312 0.000000
0.000000 0.000000 0.000000
-16030.540648 5.071507 0.000000
5.071507 -16023.542972 0.000000
0.000000 0.000000 0.000000
-16418.423321 4.757740 0.000000
4.757740 -16411.230954 0.000000
0.000000 0.000000 0.000000
-16817.047472 4.438479 0.000000
4.438479 -16809.740130 0.000000
0.000000 0.000000 0.000000
-17241.206293 4.098320 0.000000
4.098320 -17233.854461 0.000000
0.000000 0.000000 0.000000
-17683.875561 3.737128 0.000000
3.737128 -17676.550522 0.000000
0.000000 0.000000 0.000000
-18158.245694 3.338442 0.000000
3.338442 -18151.003622 0.000000
0.000000 0.000000 0.000000
-18643.843293 2.906589 0.000000
2.906589 -18636.739883 0.000000
0.000000 0.000000 0.000000
-19166.440563 2.420898 0.000000
2.420898 -19159.508112 0.000000
0.000000 0.000000 0.000000
-19697.452647 1.899275 0.000000
1.899275 -19690.716866 0.000000
0.000000 0.000000 0.000000
-20259.710426 1.315915 0.000000
1.315915 -20253.179848 0.000000
0.000000 0.000000 0.000000
-20815.561580 0.690453 0.000000
0.690453 -20809.227626 0.000000
0.000000 0.000000 0.000000
-21380.321638 0.011488 0.000000
0.011488 -21374.166323 0.000000
0.000000 0.000000 0.000000
-21955.586940 -0.718273 0.000000
-0.718273 -21949.550469 0.000000
0.000000 0.000000 0.000000
-22497.928240 -1.472545 0.000000
-1.472545 -22491.955882 0.000000
0.000000 0.000000 0.000000
-23030.379766 -2.272584 0.000000
-2.272584 -23024.393198 0.000000
0.000000 0.000000 0.000000
-23513.637873 -3.073684 0.000000
-3.073684 -23507.563783 0.000000
0.000000 0.000000 0.000000
-11243.201578 10.461560 0.000000
10.461560 -11240.957353 0.000000
0.000000 0.000000 0.000000
-11757.562573 9.940135 0.000000
9.940135 -11755.032274 0.000000
0.000000 0.000000 0.000000
-12240.992277 9.436083 0.000000
9.436083 -12238.130056 0.000000
0.000000 0.000000 0.000000
-12718.600130 8.932692 0.000000
8.932692 -12715.372720 0.000000
0.000000 0.000000 0.000000
-13167.465661 8.451723 0.000000
8.451723 -13163.825804 0.000000
0.000000 0.000000 0.000000
-13606.542261 7.983677 0.000000
7.983677 -13602.464888 0.000000
0.000000 0.000000 0.000000
-14017.872324 7.543384 0.000000
7.543384 -14013.323341 0.000000
0.000000 0.000000 0.000000
-14416.302983 7.125190 0.000000
7.125190 -14411.283957 0.000000
0.000000 0.000000 0.000000
-14794.928479 6.736935 0.000000
6.736935 -14789.433824 0.000000
0.000000 0.000000 0.000000
-15161.892891 6.376893 0.000000
6.376893 -15155.939967 0.000000
0.000000 0.000000 0.000000
-15516.421349 6.044791 0.000000
6.044791 -15510.040643 0.000000
0.000000 0.000000 0.000000
-15873.516297 5.734478 0.000000
5.734478 -15866.760014 0.000000
0.000000 0.000000 0.000000
-16232.914574 5.440716 0.000000
5.440716 -16225.846156 0.000000
0.000000 0.000000 0.000000
-16598.633169 5.154755 0.000000
5.154755 -16591.328372 0.000000
0.000000 0.000000 0.000000
-16983.021898 4.864522 0.000000
4.864522 -16975.572069 0.000000
0.000000 0.000000 0.000000
-17382.031192 4.566552 0.000000
4.566552 -17374.502012 0.000000
0.000000 0.000000 0.000000
-17812.786404 4.243259 0.000000
4.243259 -17805.268416 0.000000
0.000000 0.000000 0.000000
-18265.834444 3.894756 0.000000
3.894756 -18258.389852 0.000000
0.000000 0.000000 0.000000
-18750.720094 3.507698 0.000000
3.507698 -18743.426528 0.000000
0.000000 0.000000 0.000000
-19263.572440 3.076721 0.000000
3.076721 -19256.463824 0.000000
0.000000 0.000000 0.000000
-19799.394068 2.601045 0.000000
2.601045 -19792.510571 0.000000
0.000000 0.000000 0.000000
-20363.210795 2.071028 0.000000
2.071028 -20356.572910 0.000000
0.000000 0.000000 0.000000
-20940.153605 1.492614 0.000000
1.492614 -20933.777712 0.000000
0.000000 0.000000 0.000000
-21533.528648 0.858293 0.000000
0.858293 -21527.390225 0.000000
0.000000 0.000000 0.000000
-22129.561330 0.175338 0.000000
0.175338 -22123.627427 0.000000
0.000000 0.000000 0.000000
-22723.893877 -0.561980 0.000000
-0.561980 -22718.118969 0.000000
0.000000 0.000000 0.000000
-23290.360779 -1.334910 0.000000
-1.334910 -23284.682218 0.000000
0.000000 0.000000 0.000000
-23830.360712 -2.135554 0.000000
-2.135554 -23824.684014 0.000000
0.000000 0.000000 0.000000
-24345.483044 -2.956953 0.000000
-2.956953 -24339.699855 0.000000
0.000000 0.000000 0.000000
-11977.799928 10.335606 0.000000
10.335606 -11975.451569 0.000000
0.000000 0.000000 0.000000
-12475.123434 9.818898 0.000000
9.818898 -12472.461939 0.000000
0.000000 0.000000 0.000000
-12962.525642 9.305287 0.000000
9.305287 -12959.504395 0.000000
0.000000 0.000000 0.000000
-13422.571362 8.812200 0.000000
8.812200 -13419.142778 0.000000
0.000000 0.000000 0.000000
-13866.193769 8.332545 0.000000
8.332545 -13862.321257 0.000000
0.000000 0.000000 0.000000
-14285.389797 7.875230 0.000000
7.875230 -14281.042284 0.000000
0.000000 0.000000 0.000000
-14681.400283 7.446895 0.000000
7.446895 -14676.556194 0.000000
0.000000 0.000000 0.000000
-15057.372930 7.048853 0.000000
7.048853 -15052.021333 0.000000
0.000000 0.000000 0.000000
-15416.546863 6.683197 0.000000
6.683197 -15410.690581 0.000000
0.000000 0.000000 0.000000
-15763.694781 6.352758 0.000000
6.352758 -15757.362742 0.000000
0.000000 0.000000 0.000000
-16105.283698 6.050667 0.000000
6.050667 -16098.523444 0.000000
0.000000 0.000000 0.000000
-16444.769469 5.771251 0.000000
5.771251 -16437.642314 0.000000
0.000000 0.000000 0.000000
-16787.477240 5.508764 0.000000
5.508764 -16780.066305 0.000000
0.000000 0.000000 0.000000
-17145.120294 5.252102 0.000000
5.252102 -17137.511922 0.000000
0.000000 0.000000 0.000000
-17530.675854 4.988058 0.000000
4.988058 -17522.956014 0.000000
0.000000 0.000000 0.000000
-17935.561609 4.709927 0.000000
4.709927 -17927.817682 0.000000
0.000000 0.000000 0.000000
-18375.391481 4.401655 0.000000
4.401655 -18367.716887 0.000000
0.000000 0.000000 0.000000
-18838.066715 4.063900 0.000000
4.063900 -18830.521388 0.000000
0.000000 0.000000 0.000000
-19344.384739 3.683062 0.000000
3.683062 -19337.036602 0.000000
0.000000 0.000000 0.000000
-19882.093298 3.256718 0.000000
3.256718 -19874.990424 0.000000
0.000000 0.000000 0.000000
-20439.755984 2.784289 0.000000
2.784289 -20432.927866 0.000000
0.000000 0.000000 0.000000
-21030.523852 2.254219 0.000000
2.254219 -21023.994598 0.000000
0.000000 0.000000 0.000000
-21643.275877 1.672114 0.000000
1.672114 -21637.045160 0.000000
0.000000 0.000000 0.000000
-22263.024917 1.037834 0.000000
1.037834 -22257.076209 0.000000
0.000000 0.000000 0.000000
-22897.803821 0.334513 0.000000
0.334513 -22892.103087 0.000000
0.000000 0.000000 0.000000
-23498.690346 -0.397918 0.000000
-0.397918 -23493.199278 0.000000
0.000000 0.000000 0.000000
-24108.601507 -1.195871 0.000000
-1.195871 -24103.219098 0.000000
0.000000 0.000000 0.000000
-24667.499537 -2.002722 0.000000
-2.002722 -24662.112634 0.000000
0.000000 0.000000 0.000000
-25197.394044 -2.831448 0.000000
-2.831448 -25191.881467 0.000000
0.000000 0.000000 0.000000
-12717.993672 10.198067 0.000000
10.198067 -12715.546987 0.000000
0.000000 0.000000 0.000000
-13212.692276 9.676443 0.000000
9.676443 -13209.894897 0.000000
0.000000 0.000000 0.000000
-13683.836895 9.169699 0.000000
9.169699 -13680.640671 0.000000
0.000000 0.000000 0.000000
-14134.390216 8.674427 0.000000
8.674427 -14130.754282 0.000000
0.000000 0.000000 0.000000
-14562.478547 8.199954 0.000000
8.199954 -14558.366202 0.000000
0.000000 0.000000 0.000000
-14954.897808 7.758827 0.000000
7.758827 -14950.262660 0.000000
0.000000 0.000000 0.000000
-15334.404412 7.344782 0.000000
7.344782 -15329.234338 0.000000
0.000000 0.000000 0.000000
-15687.989436 6.969843 0.000000
6.969843 -15682.273528 0.000000
0.000000 0.000000 0.000000
-16025.825553 6.631373 0.000000
6.631373 -16019.583007 0.000000
0.000000 0.000000 0.000000
-16345.866629 6.332619 0.000000
6.332619 -16339.135657 0.000000
0.000000 0.000000 0.000000
-16665.518021 6.060146 0.000000
6.060146 -16658.367673 0.000000
0.000000 0.000000 0.000000
-16980.751665 5.818059 0.000000
5.818059 -16973.248657 0.000000
0.000000 0.000000 0.000000
-17314.177487 5.586037 0.000000
5.586037 -17306.422952 0.000000
0.000000 0.000000 0.000000
-17672.016758 5.352696 0.000000
5.352696 -17664.095401 0.000000
0.000000 0.000000 0.000000
-18050.114207 5.112667 0.000000
5.112667 -18042.143187 0.000000
0.000000 0.000000 0.000000
-18457.806920 4.849863 0.000000
4.849863 -18449.870742 0.000000
0.000000 0.000000 0.000000
-18908.287957 4.551956 0.000000
4.551956 -18900.477724 0.000000
0.000000 0.000000 0.000000
-19386.948571 4.220523 0.000000
4.220523 -19379.317391 0.000000
0.000000 0.000000 0.000000
-19909.036870 3.844726 0.000000
3.844726 -19901.653890 0.000000
0.000000 0.000000 0.000000
-20466.801219 3.423753 0.000000
3.423753 -20459.719270 0.000000
0.000000 0.000000 0.000000
-21059.669131 2.947866 0.000000
2.947866 -21052.910194 0.000000
0.000000 0.000000 0.000000
-21675.524478 2.424499 0.000000
2.424499 -21669.106455 0.000000
0.000000 0.000000 0.000000
-22323.072950 1.837901 0.000000
1.837901 -22316.996843 0.000000
0.000000 0.000000 0.000000
-22979.986549 1.197132 0.000000
1.197132 -22974.250790 0.000000
0.000000 0.000000 0.000000
-23633.495715 0.502563 0.000000
0.502563 -23628.054969 0.000000
0.000000 0.000000 0.000000
-24299.825916 -0.255355 0.000000
-0.255355 -24294.612779 0.000000
0.000000 0.000000 0.000000
-24933.576461 -1.046869 0.000000
-1.046869 -24928.475604 0.000000
0.000000 0.000000 0.000000
-25535.667464 -1.876889 0.000000
-1.876889 -25530.570305 0.000000
0.000000 0.000000 0.000000
-26082.267201 -2.715439 0.000000
-2.715439 -26077.032651 0.000000
0.000000 0.000000 0.000000
-13464.522395 10.050277 0.000000
10.050277 -13461.966117 0.000000
0.000000 0.000000 0.000000
-13949.607109 9.523256 0.000000
9.523256 -13946.667264 0.000000
0.000000 0.000000 0.000000
-14407.691972 9.012944 0.000000
9.012944 -14404.327303 0.000000
0.000000 0.000000 0.000000
-14839.721283 8.521714 0.000000
8.521714 -14835.875181 0.000000
0.000000 0.000000 0.000000
-15246.700286 8.056199 0.000000
8.056199 -15242.321279 0.000000
0.000000 0.000000 0.000000
-15622.999016 7.629710 0.000000
7.629710 -15618.051467 0.000000
0.000000 0.000000 0.000000
-15979.853278 7.235580 0.000000
7.235580 -15974.326816 0.000000
0.000000 0.000000 0.000000
-16301.920027 6.889704 0.000000
6.889704 -16295.817775 0.000000
0.000000 0.000000 0.000000
-16608.752384 6.582717 0.000000
6.582717 -16602.098208 0.000000
0.000000 0.000000 0.000000
-16901.082132 6.321680 0.000000
6.321680 -16893.937062 0.000000
0.000000 0.000000 0.000000
-17199.055565 6.090068 0.000000
6.090068 -17191.484900 0.000000
0.000000 0.000000 0.000000
-17503.782114 5.883940 0.000000
5.883940 -17495.895859 0.000000
0.000000 0.000000 0.000000
-17832.985834 5.677093 0.000000
5.677093 -17824.874485 0.000000
0.000000 0.000000 0.000000
-18167.717947 5.479083 0.000000
5.479083 -18159.509989 0.000000
0.000000 0.000000 0.000000
-18554.129762 5.250719 0.000000
5.250719 -18545.920734 0.000000
0.000000 0.000000 0.000000
-18972.090571 5.005979 0.000000
5.005979 -18963.971869 0.000000
0.000000 0.000000 0.000000
-19440.283663 4.720451 0.000000
4.720451 -19432.340297 0.000000
0.000000 0.000000 0.000000
-19937.868969 4.396850 0.000000
4.396850 -19930.158637 0.000000
0.000000 0.000000 0.000000
-20484.341402 4.024439 0.000000
4.024439 -20476.929132 0.000000
0.000000 0.000000 0.000000
-21071.486639 3.606094 0.000000
3.606094 -21064.417506 0.000000
0.000000 0.000000 0.000000
-21690.503158 3.138909 0.000000
3.138909 -21683.793186 0.000000
0.000000 0.000000 0.000000
-22353.073680 2.605786 0.000000
2.605786 -22346.758898 0.000000
0.000000 0.000000 0.000000
-23017.270268 2.029561 0.000000
2.029561 -23011.343215 0.000000
0.000000 0.000000 0.000000
-23728.850193 1.376963 0.000000
1.376963 -23723.304454 0.000000
0.000000 0.000000 0.000000
-24422.934338 0.687469 0.000000
0.687469 -24417.710039 0.000000
0.000000 0.000000 0.000000
-25146.262166 -0.088847 0.000000
-0.088847 -25141.287694 0.000000
0.000000 0.000000 0.000000
-25794.267232 -0.889612 0.000000
-0.889612 -25789.454007 0.000000
0.000000 0.000000 0.000000
-26425.467367 -1.751981 0.000000
-1.751981 -26420.669666 0.000000
0.000000 0.000000 0.000000
-26983.213639 -2.607116 0.000000
-2.607116 -26978.249865 0.000000
0.000000 0.000000 0.000000
-14226.571492 9.879431 0.000000
9.879431 -14223.926434 0.000000
0.000000 0.000000 0.000000
-14688.344792 9.353506 0.000000
9.353506 -14685.279179 0.000000
0.000000 0.000000 0.000000
-15130.860453 8.843452 0.000000
8.843452 -15127.307574 0.000000
0.000000 0.000000 0.000000
-15559.459279 8.350652 0.000000
8.350652 -15555.373640 0.000000
0.000000 0.000000 0.000000
-15929.042030 7.905752 0.000000
7.905752 -15924.364900 0.000000
0.000000 0.000000 0.000000
-16281.546531 7.487843 0.000000
7.487843 -16276.262889 0.000000
0.000000 0.000000 0.000000
-16595.719538 7.123954 0.000000
7.123954 -16589.808594 0.000000
0.000000 0.000000 0.000000
-16890.905492 6.806083 0.000000
6.806083 -16884.379280 0.000000
0.000000 0.000000 0.000000
-17157.359176 6.548899 0.000000
6.548899 -17150.261306 0.000000
0.000000 0.000000 0.000000
-17444.585784 6.313059 0.000000
6.313059 -17436.990131 0.000000
0.000000 0.000000 0.000000
-17697.311411 6.135634 0.000000
6.135634 -17689.318311 0.000000
0.000000 0.000000 0.000000
-17994.877889 5.950834 0.000000
5.950834 -17986.600625 0.000000
0.000000 0.000000 0.000000
-18292.133932 5.789216 0.000000
5.789216 -18283.698211 0.000000
0.000000 0.000000 0.000000
-18646.220819 5.597652 0.000000
5.597652 -18637.743180 0.000000
0.000000 0.000000 0.000000
-19025.262916 5.393136 0.000000
5.393136 -19016.820978 0.000000
0.000000 0.000000 0.000000
-19465.137669 5.150888 0.000000
5.150888 -19456.848680 0.000000
0.000000 0.000000 0.000000
-19943.044970 4.876769 0.000000
4.876769 -19934.978855 0.000000
0.000000 0.000000 0.000000
-20469.816642 4.554845 0.000000
4.554845 -20462.041641 0.000000
0.000000 0.000000 0.000000
-21037.055709 4.193600 0.000000
4.193600 -21029.602644 0.000000
0.000000 0.000000 0.000000
-21668.852192 3.773064 0.000000
3.773064 -21661.782160 0.000000
0.000000 0.000000 0.000000
-22316.014144 3.318132 0.000000
3.318132 -22309.350145 0.000000
0.000000 0.000000 0.000000
-23022.569081 2.792041 0.000000
2.792041 -23016.342187 0.000000
0.000000 0.000000 0.000000
-23741.991948 2.222733 0.000000
2.222733 -23736.184089 0.000000
0.000000 0.000000 0.000000
-24499.165669 1.577590 0.000000
1.577590 -24493.774097 0.000000
0.000000 0.000000 0.000000
-25255.051012 0.870093 0.000000
0.870093 -25250.020524 0.000000
0.000000 0.000000 0.000000
-25995.270849 0.101175 0.000000
0.101175 -25990.564161 0.000000
0.000000 0.000000 0.000000
-26711.182270 -0.730428 0.000000
-0.730428 -26706.667052 0.000000
0.000000 0.000000 0.000000
-27382.861531 -1.603287 0.000000
-1.603287 -27378.345272 0.000000
0.000000 0.000000 0.000000
-27982.856171 -2.489734 0.000000
-2.489734 -27978.121718 0.000000
0.000000 0.000000 0.000000
-14980.962745 9.704580 0.000000
9.704580 -14978.223216 0.000000
0.000000 0.000000 0.000000
-15442.096235 9.168216 0.000000
9.168216 -15438.876988 0.000000
0.000000 0.000000 0.000000
-15866.518639 8.655054 0.000000
8.655054 -15862.771190 0.000000
0.000000 0.000000 0.000000
-16248.499449 8.173574 0.000000
8.173574 -16244.161541 0.000000
0.000000 0.000000 0.000000
-16595.573707 7.731648 0.000000
7.731648 -16590.596738 0.000000
0.000000 0.000000 0.000000
-16909.567890 7.339234 0.000000
7.339234 -16903.908185 0.000000
0.000000 0.000000 0.000000
-17197.663738 7.002455 0.000000
7.002455 -17191.331381 0.000000
0.000000 0.000000 0.000000
-17443.969392 6.732586 0.000000
6.732586 -17436.979412 0.000000
0.000000 0.000000 0.000000
-17696.639107 6.503128 0.000000
6.503128 -17689.065300 0.000000
0.000000 0.000000 0.000000
-17915.579591 6.337729 0.000000
6.337729 -17907.521910 0.000000
0.000000 0.000000 0.000000
-18170.156279 6.180921 0.000000
6.180921 -18161.737574 0.000000
0.000000 0.000000 0.000000
-18431.889553 6.044671 0.000000
6.044671 -18423.241345 0.000000
0.000000 0.000000 0.000000
-18735.286466 5.901146 0.000000
5.901146 -18726.541838 0.000000
0.000000 0.000000 0.000000
-19098.657184 5.723939 0.000000
5.723939 -19089.909581 0.000000
0.000000 0.000000 0.000000
-19478.490283 5.536434 0.000000
5.536434 -19469.849159 0.000000
0.000000 0.000000 0.000000
-19935.021183 5.295310 0.000000
5.295310 -19926.577201 0.000000
0.000000 0.000000 0.000000
-20429.251548 5.030308 0.000000
5.030308 -20421.072607 0.000000
0.000000 0.000000 0.000000
-20996.449408 4.706828 0.000000
4.706828 -20988.585545 0.000000
0.000000 0.000000 0.000000
-21589.415174 4.355931 0.000000
4.355931 -21581.920431 0.000000
0.000000 0.000000 0.000000
-22244.468303 3.942901 0.000000
3.942901 -22237.379961 0.000000
0.000000 0.000000 0.000000
-22942.072384 3.487951 0.000000
3.487951 -22935.427724 0.000000
0.000000 0.000000 0.000000
-23681.883683 2.979069 0.000000
2.979069 -23675.695698 0.000000
0.000000 0.000000 0.000000
-24464.947343 2.404265 0.000000
2.404265 -24459.221492 0.000000
0.000000 0.000000 0.000000
-25258.577110 1.773139 0.000000
1.773139 -25253.322443 0.000000
0.000000 0.000000 0.000000
-26069.447102 1.064012 0.000000
1.064012 -26064.621635 0.000000
0.000000 0.000000 0.000000
-26868.817258 0.292632 0.000000
0.292632 -26864.353129 0.000000
0.000000 0.000000 0.000000
-27671.932605 -0.564240 0.000000
-0.564240 -27667.667419 0.000000
0.000000 0.000000 0.000000
-28391.309060 -1.458331 0.000000
-1.458331 -28387.050259 0.000000
0.000000 0.000000 0.000000
-29043.085668 -2.387498 0.000000
-2.387498 -29038.595659 0.000000
0.000000 0.000000 0.000000
-15759.276962 9.499661 0.000000
9.499661 -15756.426272 0.000000
0.000000 0.000000 0.000000
-16184.211601 8.967978 0.000000
8.967978 -16180.851097 0.000000
0.000000 0.000000 0.000000
-16587.955655 8.446394 0.000000
8.446394 -16584.018932 0.000000
0.000000 0.000000 0.000000
-16933.419628 7.976021 0.000000
7.976021 -16928.810346 0.000000
0.000000 0.000000 0.000000
-17259.212151 7.543143 0.000000
7.543143 -17253.883411 0.000000
0.000000 0.000000 0.000000
-17520.481616 7.191294 0.000000
7.191294 -17514.405959 0.000000
0.000000 0.000000 0.000000
-17767.080238 6.887255 0.000000
6.887255 -17760.279199 0.000000
0.000000 0.000000 0.000000
-17966.983788 6.663630 0.000000
6.663630 -17959.485122 0.000000
0.000000 0.000000 0.000000
-18162.042397 6.494067 0.000000
6.494067 -18153.976073 0.000000
0.000000 0.000000 0.000000
-18358.975232 6.366446 0.000000
6.366446 -18350.450475 0.000000
0.000000 0.000000 0.000000
-18594.420417 6.246519 0.000000
6.246519 -18585.593061 0.000000
0.000000 0.000000 0.000000
-18835.503385 6.150777 0.000000
6.150777 -18826.493996 0.000000
0.000000 0.000000 0.000000
-19167.225300 6.005968 0.000000
6.005968 -19158.174123 0.000000
0.000000 0.000000 0.000000
-19502.573932 5.865691 0.000000
5.865691 -19493.594061 0.000000
0.000000 0.000000 0.000000
-19920.386176 5.662079 0.000000
5.662079 -19911.563700 0.000000
0.000000 0.000000 0.000000
-20383.100737 5.435510 0.000000
5.435510 -20374.498694 0.000000
0.000000 0.000000 0.000000
-20922.782752 5.160307 0.000000
5.160307 -20914.478366 0.000000
0.000000 0.000000 0.000000
-21491.060106 4.862009 0.000000
4.862009 -21483.093220 0.000000
0.000000 0.000000 0.000000
-22145.335410 4.500310 0.000000
4.500310 -22137.770473 0.000000
0.000000 0.000000 0.000000
-22826.725583 4.113773 0.000000
4.113773 -22819.576150 0.000000
0.000000 0.000000 0.000000
-23585.497913 3.663114 0.000000
3.663114 -23578.822193 0.000000
0.000000 0.000000 0.000000
-24370.952611 3.168578 0.000000
3.168578 -24364.763044 0.000000
0.000000 0.000000 0.000000
-25191.592721 2.611439 0.000000
2.611439 -25185.924434 0.000000
0.000000 0.000000 0.000000
-26057.490182 1.975854 0.000000
1.975854 -26052.329128 0.000000
0.000000 0.000000 0.000000
-26928.003410 1.285813 0.000000
1.285813 -26923.326238 0.000000
0.000000 0.000000 0.000000
-27828.346935 0.503280 0.000000
0.503280 -27824.048105 0.000000
0.000000 0.000000 0.000000
-28694.645031 -0.360669 0.000000
-0.360669 -28690.615595 0.000000
0.000000 0.000000 0.000000
-29475.540609 -1.297250 0.000000
-1.297250 -29471.558124 0.000000
0.000000 0.000000 0.000000
-30172.723308 -2.287277 0.000000
-2.287277 -30168.491182 0.000000
0.000000 0.000000 0.000000
-16507.069135 9.281155 0.000000
9.281155 -16504.152321 0.000000
0.000000 0.000000 0.000000
-16931.636612 8.724447 0.000000
8.724447 -16928.147623 0.000000
0.000000 0.000000 0.000000
-17292.177403 8.219798 0.000000
8.219798 -17287.999995 0.000000
0.000000 0.000000 0.000000
-17627.638173 7.749567 0.000000
7.749567 -17622.714185 0.000000
0.000000 0.000000 0.000000
-17877.498812 7.362240 0.000000
7.362240 -17871.767209 0.000000
0.000000 0.000000 0.000000
-18107.948439 7.025386 0.000000
7.025386 -18101.425284 0.000000
0.000000 0.000000 0.000000
-18277.502078 6.784565 0.000000
6.784565 -18270.172566 0.000000
0.000000 0.000000 0.000000
-18437.234449 6.610580 0.000000
6.610580 -18429.228233 0.000000
0.000000 0.000000 0.000000
-18585.977064 6.496921 0.000000
6.496921 -18577.401032 0.000000
0.000000 0.000000 0.000000
-18765.205575 6.409374 0.000000
6.409374 -18756.231867 0.000000
0.000000 0.000000 0.000000
-18960.462051 6.334737 0.000000
6.334737 -18951.229146 0.000000
0.000000 0.000000 0.000000
-19220.636009 6.238876 0.000000
6.238876 -19211.300801 0.000000
0.000000 0.000000 0.000000
-19521.115428 6.122086 0.000000
6.122086 -19511.804815 0.000000
0.000000 0.000000 0.000000
-19897.285088 5.965099 0.000000
5.965099 -19888.106245 0.000000
0.000000 0.000000 0.000000
-20332.556110 5.769160 0.000000
5.769160 -20323.555378 0.000000
0.000000 0.000000 0.000000
-20810.459775 5.551411 0.000000
5.551411 -20801.700425 0.000000
0.000000 0.000000 0.000000
-21388.799558 5.269329 0.000000
5.269329 -21380.356160 0.000000
0.000000 0.000000 0.000000
-21982.571156 4.983566 0.000000
4.983566 -21974.477651 0.000000
0.000000 0.000000 0.000000
-22689.731543 4.627837 0.000000
4.627837 -22682.048639 0.000000
0.000000 0.000000 0.000000
-23394.656048 4.264513 0.000000
4.264513 -23387.393975 0.000000
0.000000 0.000000 0.000000
-24209.638557 3.822533 0.000000
3.822533 -24202.873672 0.000000
0.000000 0.000000 0.000000
-25048.026388 3.351401 0.000000
3.351401 -25041.782581 0.000000
0.000000 0.000000 0.000000
-25944.824372 2.817894 0.000000
2.817894 -25939.148842 0.000000
0.000000 0.000000 0.000000
-26879.819258 2.209058 0.000000
2.209058 -26874.673942 0.000000
0.000000 0.000000 0.000000
-27851.479176 1.511932 0.000000
1.511932 -27846.854203 0.000000
0.000000 0.000000 0.000000
-28815.547043 0.730571 0.000000
0.730571 -28811.383265 0.000000
0.000000 0.000000 0.000000
-29754.142778 -0.145108 0.000000
-0.145108 -29750.345254 0.000000
0.000000 0.000000 0.000000
-30629.239774 -1.115920 0.000000
-1.115920 -30625.524583 0.000000
0.000000 0.000000 0.000000
-31415.676318 -2.169212 0.000000
-2.169212 -31411.732095 0.000000
0.000000 0.000000 0.000000
-17284.167634 9.019492 0.000000
9.019492 -17281.152939 0.000000
0.000000 0.000000 0.000000
-17681.610794 8.466478 0.000000
8.466478 -17677.930344 0.000000
0.000000 0.000000 0.000000
-17999.104379 7.966447 0.000000
7.966447 -17994.665413 0.000000
0.000000 0.000000 0.000000
-18266.388338 7.514721 0.000000
7.514721 -18261.116608 0.000000
0.000000 0.000000 0.000000
-18468.288344 7.148878 0.000000
7.148878 -18462.136934 0.000000
0.000000 0.000000 0.000000
-18643.960800 6.860531 0.000000
6.860531 -18636.903586 0.000000
0.000000 0.000000 0.000000
-18740.767437 6.693501 0.000000
6.693501 -18732.892634 0.000000
0.000000 0.000000 0.000000
-18853.698916 6.577512 0.000000
6.577512 -18845.138916 0.000000
0.000000 0.000000 0.000000
-18952.155511 6.526405 0.000000
6.526405 -18943.081477 0.000000
0.000000 0.000000 0.000000
-19108.511768 6.468428 0.000000
6.468428 -19099.118184 0.000000
0.000000 0.000000 0.000000
-19273.229329 6.425627 0.000000
6.425627 -19263.645275 0.000000
0.000000 0.000000 0.000000
-19563.824386 6.308575 0.000000
6.308575 -19554.234032 0.000000
0.000000 0.000000 0.000000
-19843.409158 6.216324 0.000000
6.216324 -19833.872832 0.000000
0.000000 0.000000 0.000000
-20264.724203 6.042394 0.000000
6.042394 -20255.339107 0.000000
0.000000 0.000000 0.000000
-20717.715573 5.852567 0.000000
5.852567 -20708.524000 0.000000
0.000000 0.000000 0.000000
-21246.989884 5.619974 0.000000
5.619974 -21238.071817 0.000000
0.000000 0.000000 0.000000
-21815.472962 5.374478 0.000000
5.374478 -21806.846682 0.000000
0.000000 0.000000 0.000000
-22496.741275 5.073179 0.000000
5.073179 -22488.457594 0.000000
0.000000 0.000000 0.000000
-23221.318841 4.756445 0.000000
4.756445 -23213.448304 0.000000
0.000000 0.000000 0.000000
-24002.737777 4.395573 0.000000
4.395573 -23995.317308 0.000000
0.000000 0.000000 0.000000
-24846.556491 3.995958 0.000000
3.995958 -24839.619484 0.000000
0.000000 0.000000 0.000000
-25741.454517 3.555578 0.000000
3.555578 -25735.056370 0.000000
0.000000 0.000000 0.000000
-26760.132351 3.020141 0.000000
3.020141 -26754.321339 0.000000
0.000000 0.000000 0.000000
-27741.610808 2.468662 0.000000
2.468662 -27736.387043 0.000000
0.000000 0.000000 0.000000
-28814.493078 1.782200 0.000000
1.782200 -28809.871907 0.000000
0.000000 0.000000 0.000000
-29861.849002 1.001672 0.000000
1.001672 -29857.795162 0.000000
0.000000 0.000000 0.000000
-30935.085746 0.092510 0.000000
0.092510 -30931.454488 0.000000
0.000000 0.000000 0.000000
-31916.186902 -0.891148 0.000000
-0.891148 -31912.668731 0.000000
0.000000 0.000000 0.000000
-32833.516689 -1.988110 0.000000
-1.988110 -32829.753731 0.000000
0.000000 0.000000 0.000000
-18068.307712 8.746100 0.000000
8.746100 -18065.182113 0.000000
0.000000 0.000000 0.000000
-18392.437776 8.197002 0.000000
8.197002 -18388.582832 0.000000
0.000000 0.000000 0.000000
-18687.962299 7.671670 0.000000
7.671670 -18683.259761 0.000000
0.000000 0.000000 0.000000
-18864.762616 7.268255 0.000000
7.268255 -18859.089639 0.000000
0.000000 0.000000 0.000000
-19052.360047 6.915324 0.000000
6.915324 -19045.682239 0.000000
0.000000 0.000000 0.000000
-19085.767876 6.737402 0.000000
6.737402 -19078.135227 0.000000
0.000000 0.000000 0.000000
-19149.817326 6.611461 0.000000
6.611461 -19141.363541 0.000000
0.000000 0.000000 0.000000
-19167.525436 6.590779 0.000000
6.590779 -19158.406499 0.000000
0.000000 0.000000 0.000000
-19268.887581 6.564436 0.000000
6.564436 -19259.371537 0.000000
0.000000 0.000000 0.000000
-19390.414935 6.545675 0.000000
6.545675 -19380.642194 0.000000
0.000000 0.000000 0.000000
-19583.987610 6.491323 0.000000
6.491323 -19574.151087 0.000000
0.000000 0.000000 0.000000
-19835.096458 6.403409 0.000000
6.403409 -19825.255048 0.000000
0.000000 0.000000 0.000000
-20199.660704 6.259414 0.000000
6.259414 -20189.909909 0.000000
0.000000 0.000000 0.000000
-20623.432129 6.093227 0.000000
6.093227 -20613.839069 0.000000
0.000000 0.000000 0.000000
-21078.560754 5.924692 0.000000
5.924692 -21069.161282 0.000000
0.000000 0.000000 0.000000
-21680.380081 5.676185 0.000000
5.676185 -21671.244977 0.000000
0.000000 0.000000 0.000000
-22287.605863 5.438102 0.000000
5.438102 -22278.725691 0.000000
0.000000 0.000000 0.000000
-22990.159055 5.163366 0.000000
5.163366 -22981.620722 0.000000
0.000000 0.000000 0.000000
-23741.676872 4.873250 0.000000
4.873250 -23733.532364 0.000000
0.000000 0.000000 0.000000
-24617.380358 4.518739 0.000000
4.518739 -24609.682039 0.000000
0.000000 0.000000 0.000000
-25512.231381 4.167561 0.000000
4.167561 -25505.016529 0.000000
0.000000 0.000000 0.000000
-26484.830539 3.757033 0.000000
3.757033 -26478.164264 0.000000
0.000000 0.000000 0.000000
-27548.202381 3.263363 0.000000
3.263363 -27542.147935 0.000000
0.000000 0.000000 0.000000
-28664.208815 2.708254 0.000000
2.708254 -28658.814279 0.000000
0.000000 0.000000 0.000000
-29794.220260 2.088221 0.000000
2.088221 -29789.535342 0.000000
0.000000 0.000000 0.000000
-31001.847629 1.318368 0.000000
1.318368 -30997.773144 0.000000
0.000000 0.000000 0.000000
-32265.967641 0.384196 0.000000
0.384196 -32262.378641 0.000000
0.000000 0.000000 0.000000
-33361.147093 -0.637257 0.000000
-0.637257 -33357.785571 0.000000
0.000000 0.000000 0.000000
-34390.142712 -1.843223 0.000000
-1.843223 -34386.531440 0.000000
0.000000 0.000000 0.000000
-18813.794200 8.452688 0.000000
8.452688 -18810.619668 0.000000
0.000000 0.000000 0.000000
-19131.230273 7.856347 0.000000
7.856347 -19127.202955 0.000000
0.000000 0.000000 0.000000
-19314.784728 7.377878 0.000000
7.377878 -19309.726923 0.000000
0.000000 0.000000 0.000000
-19480.461950 6.962291 0.000000
6.962291 -19474.300731 0.000000
0.000000 0.000000 0.000000
-19484.835244 6.735427 0.000000
6.735427 -19477.575807 0.000000
0.000000 0.000000 0.000000
-19484.554758 6.607758 0.000000
6.607758 -19476.296863 0.000000
0.000000 0.000000 0.000000
-19461.104058 6.587047 0.000000
6.587047 -19452.025294 0.000000
0.000000 0.000000 0.000000
-19434.648778 6.625023 0.000000
6.625023 -19425.043047 0.000000
0.000000 0.000000 0.000000
-19517.683865 6.611423 0.000000
6.611423 -19507.783420 0.000000
0.000000 0.000000 0.000000
-19588.031326 6.622179 0.000000
6.622179 -19577.978370 0.000000
0.000000 0.000000 0.000000
-19856.288216 6.511554 0.000000
6.511554 -19846.228857 0.000000
0.000000 0.000000 0.000000
-20108.346377 6.426260 0.000000
6.426260 -20098.290211 0.000000
0.000000 0.000000 0.000000
-20490.653258 6.269827 0.000000
6.269827 -20480.699405 0.000000
0.000000 0.000000 0.000000
-20924.852202 6.109262 0.000000
6.109262 -20915.028338 0.000000
0.000000 0.000000 0.000000
-21461.402562 5.909237 0.000000
5.909237 -21451.763080 0.000000
0.000000 0.000000 0.000000
-22055.299645 5.700468 0.000000
5.700468 -22045.870828 0.000000
0.000000 0.000000 0.000000
-22727.051672 5.462972 0.000000
5.462972 -22717.867062 0.000000
0.000000 0.000000 0.000000
-23457.444141 5.222169 0.000000
5.222169 -23448.587255 0.000000
0.000000 0.000000 0.000000
-24277.321489 4.944414 0.000000
4.944414 -24268.817842 0.000000
0.000000 0.000000 0.000000
-25185.780767 4.633732 0.000000
4.633732 -25177.689871 0.000000
0.000000 0.000000 0.000000
-26140.844090 4.318913 0.000000
4.318913 -26133.245704 0.000000
0.000000 0.000000 0.000000
-27227.249392 3.926996 0.000000
3.926996 -27220.227314 0.000000
0.000000 0.000000 0.000000
-28328.836190 3.520473 0.000000
3.520473 -28322.430549 0.000000
0.000000 0.000000 0.000000
-29555.582908 3.014674 0.000000
3.014674 -29549.895050 0.000000
0.000000 0.000000 0.000000
-30888.104723 2.390144 0.000000
2.390144 -30883.193464 0.000000
0.000000 0.000000 0.000000
-32230.818269 1.667492 0.000000
1.667492 -32226.568727 0.000000
0.000000 0.000000 0.000000
-33611.573150 0.767314 0.000000
0.767314 -33607.984933 0.000000
0.000000 0.000000 0.000000
-34961.949934 -0.355445 0.000000
-0.355445 -34958.781996 0.000000
0.000000 0.000000 0.000000
-36127.931083 -1.671144 0.000000
-1.671144 -36124.587935 0.000000
0.000000 0.000000 0.000000
-19584.344595 8.077985 0.000000
8.077985 -19581.085956 0.000000
0.000000 0.000000 0.000000
-19817.783062 7.501131 0.000000
7.501131 -19813.503406 0.000000
0.000000 0.000000 0.000000
-19954.029530 7.015282 0.000000
7.015282 -19948.555720 0.000000
0.000000 0.000000 0.000000
-19952.975303 6.696521 0.000000
6.696521 -19946.259672 0.000000
0.000000 0.000000 0.000000
-19875.777219 6.551654 0.000000
6.551654 -19867.837090 0.000000
0.000000 0.000000 0.000000
-19791.179083 6.527151 0.000000
6.527151 -19782.234120 0.000000
0.000000 0.000000 0.000000
-19625.686806 6.622525 0.000000
6.622525 -19616.085902 0.000000
0.000000 0.000000 0.000000
-19632.192644 6.631619 0.000000
6.631619 -19622.240879 0.000000
0.000000 0.000000 0.000000
-19633.387277 6.656247 0.000000
6.656247 -19623.227037 0.000000
0.000000 0.000000 0.000000
-19809.123157 6.585556 0.000000
6.585556 -19798.879717 0.000000
0.000000 0.000000 0.000000
-20028.707671 6.507051 0.000000
6.507051 -20018.435994 0.000000
0.000000 0.000000 0.000000
-20354.478107 6.367941 0.000000
6.367941 -20344.253261 0.000000
0.000000 0.000000 0.000000
-20765.432258 6.203521 0.000000
6.203521 -20755.245558 0.000000
0.000000 0.000000 0.000000
-21209.173775 6.062298 0.000000
6.062298 -21199.075220 0.000000
0.000000 0.000000 0.000000
-21808.662761 5.851505 0.000000
5.851505 -21798.710260 0.000000
0.000000 0.000000 0.000000
-22438.180322 5.656183 0.000000
5.656183 -22428.388559 0.000000
0.000000 0.000000 0.000000
-23119.272412 5.458193 0.000000
5.458193 -23109.694879 0.000000
0.000000 0.000000 0.000000
-23928.251329 5.223947 0.000000
5.223947 -23918.957728 0.000000
0.000000 0.000000 0.000000
-24819.204105 4.972241 0.000000
4.972241 -24810.218171 0.000000
0.000000 0.000000 0.000000
-25739.309370 4.736040 0.000000
4.736040 -25730.704406 0.000000
0.000000 0.000000 0.000000
-26783.662636 4.443379 0.000000
4.443379 -26775.547782 0.000000
0.000000 0.000000 0.000000
-27959.114709 4.091642 0.000000
4.091642 -27951.576441 0.000000
0.000000 0.000000 0.000000
-29168.263441 3.737763 0.000000
3.737763 -29161.322442 0.000000
0.000000 0.000000 0.000000
-30477.013794 3.340830 0.000000
3.340830 -30470.826890 0.000000
0.000000 0.000000 0.000000
-32042.130058 2.737129 0.000000
2.737129 -32036.747432 0.000000
0.000000 0.000000 0.000000
-33570.477953 2.057493 0.000000
2.057493 -33565.933078 0.000000
0.000000 0.000000 0.000000
-35097.915850 1.206524 0.000000
1.206524 -35094.226447 0.000000
0.000000 0.000000 0.000000
-36752.805467 0.027308 0.000000
0.027308 -36749.731353 0.000000
0.000000 0.000000 0.000000
-38235.896128 -1.431721 0.000000
-1.431721 -38232.809554 0.000000
0.000000 0.000000 0.000000
-20343.556289 7.665381 0.000000
7.665381 -20340.191272 0.000000
0.000000 0.000000 0.000000
-20474.791465 7.084957 0.000000
7.084957 -20470.198547 0.000000
0.000000 0.000000 0.000000
-20500.244538 6.640479 0.000000
6.640479 -20494.280614 0.000000
0.000000 0.000000 0.000000
-20354.456890 6.447240 0.000000
6.447240 -20346.987569 0.000000
0.000000 0.000000 0.000000
-20177.915412 6.422399 0.000000
6.422399 -20169.212732 0.000000
0.000000 0.000000 0.000000
-19892.024062 6.564227 0.000000
6.564227 -19882.544679 0.000000
0.000000 0.000000 0.000000
-19743.643799 6.638546 0.000000
6.638546 -19733.706554 0.000000
0.000000 0.000000 0.000000
-19720.120826 6.646267 0.000000
6.646267 -19709.952205 0.000000
0.000000 0.000000 0.000000
-19760.366794 6.619839 0.000000
6.619839 -19750.024181 0.000000
0.000000 0.000000 0.000000
-19975.378390 6.515089 0.000000
6.515089 -19964.966964 0.000000
0.000000 0.000000 0.000000
-20208.976918 6.429481 0.000000
6.429481 -20198.529060 0.000000
0.000000 0.000000 0.000000
-20617.135689 6.254026 0.000000
6.254026 -20606.659225 0.000000
0.000000 0.000000 0.000000
-21006.417669 6.137749 0.000000
6.137749 -20995.924534 0.000000
0.000000 0.000000 0.000000
-21551.796890 5.953853 0.000000
5.953853 -21541.353385 0.000000
0.000000 0.000000 0.000000
-22156.933520 5.778695 0.000000
5.778695 -22146.565171 0.000000
0.000000 0.000000 0.000000
-22819.613315 5.610392 0.000000
5.610392 -22809.372316 0.000000
0.000000 0.000000 0.000000
-23550.938549 5.435904 0.000000
5.435904 -23540.844453 0.000000
0.000000 0.000000 0.000000
-24424.057123 5.213810 0.000000
5.213810 -24414.185660 0.000000
0.000000 0.000000 0.000000
-25344.434762 5.005571 0.000000
5.005571 -25334.848547 0.000000
0.000000 0.000000 0.000000
-26307.086083 4.813330 0.000000
4.813330 -26297.847970 0.000000
0.000000 0.000000 0.000000
-27443.120980 4.560965 0.000000
4.560965 -27434.336996 0.000000
0.000000 0.000000 0.000000
-28705.273645 4.267788 0.000000
4.267788 -28697.016746 0.000000
0.000000 0.000000 0.000000
-29990.565110 3.988089 0.000000
3.988089 -29982.891924 0.000000
0.000000 0.000000 0.000000
-31511.949056 3.597475 0.000000
3.597475 -31505.036794 0.000000
0.000000 0.000000 0.000000
-33158.406115 3.117233 0.000000
3.117233 -33152.350767 0.000000
0.000000 0.000000 0.000000
-34880.242357 2.526317 0.000000
2.526317 -34875.238260 0.000000
0.000000 0.000000 0.000000
-36763.098807 1.677575 0.000000
1.677575 -36759.081746 0.000000
0.000000 0.000000 0.000000
-38797.983305 0.488568 0.000000
0.488568 -38794.844563 0.000000
0.000000 0.000000 0.000000
-40717.026392 -1.113477 0.000000
-1.113477 -40714.191737 0.000000
0.000000 0.000000 0.000000
-21083.247690 7.199064 0.000000
7.199064 -21079.771634 0.000000
0.000000 0.000000 0.000000
-21107.107493 6.610321 0.000000
6.610321 -21102.130870 0.000000
0.000000 0.000000 0.000000
-20958.781099 6.280422 0.000000
6.280422 -20951.998499 0.000000
0.000000 0.000000 0.000000
-20645.672045 6.270597 0.000000
6.270597 -20637.351928 0.000000
0.000000 0.000000 0.000000
-20191.148194 6.472303 0.000000
6.472303 -20181.882369 0.000000
0.000000 0.000000 0.000000
-19901.313438 6.590744 0.000000
6.590744 -19891.515633 0.000000
0.000000 0.000000 0.000000
-19796.653507 6.600146 0.000000
6.600146 -19786.570024 0.000000
0.000000 0.000000 0.000000
-19759.252026 6.587429 0.000000
6.587429 -19748.966156 0.000000
0.000000 0.000000 0.000000
-19893.220479 6.482890 0.000000
6.482890 -19882.730224 0.000000
0.000000 0.000000 0.000000
-20071.882094 6.404571 0.000000
6.404571 -20061.285739 0.000000
0.000000 0.000000 0.000000
-20439.712079 6.239314 0.000000
6.239314 -20429.017792 0.000000
0.000000 0.000000 0.000000
-20816.688205 6.117587 0.000000
6.117587 -20805.868934 0.000000
0.000000 0.000000 0.000000
-21274.129963 5.988832 0.000000
5.988832 -21263.263179 0.000000
0.000000 0.000000 0.000000
-21858.588756 5.812778 0.000000
5.812778 -21847.695381 0.000000
0.000000 0.000000 0.000000
-22480.276214 5.670672 0.000000
5.670672 -22469.393147 0.000000
0.000000 0.000000 0.000000
-23190.914365 5.522444 0.000000
5.522444 -23180.089313 0.000000
0.000000 0.000000 0.000000
-23996.645711 5.363706 0.000000
5.363706 -23985.927057 0.000000
0.000000 0.000000 0.000000
-24891.172176 5.190155 0.000000
5.190155 -24880.608304 0.000000
0.000000 0.000000 0.000000
-25846.956375 5.033294 0.000000
5.033294 -25836.636436 0.000000
0.000000 0.000000 0.000000
-26903.566924 4.868635 0.000000
4.868635 -26893.538301 0.000000
0.000000 0.000000 0.000000
-28145.197581 4.651992 0.000000
4.651992 -28135.547226 0.000000
0.000000 0.000000 0.000000
-29454.497047 4.451797 0.000000
4.451797 -29445.304447 0.000000
0.000000 0.000000 0.000000
-30833.588205 4.247618 0.000000
4.247618 -30824.993246 0.000000
0.000000 0.000000 0.000000
-32568.925644 3.867867 0.000000
3.867867 -32561.079370 0.000000
0.000000 0.000000 0.000000
-34286.632551 3.533205 0.000000
3.533205 -34279.680820 0.000000
0.000000 0.000000 0.000000
-36318.785784 3.021543 0.000000
3.021543 -36312.981840 0.000000
0.000000 0.000000 0.000000
-38583.402322 2.253002 0.000000
2.253002 -38578.727163 0.000000
0.000000 0.000000 0.000000
-41098.580561 1.094977 0.000000
1.094977 -41095.111342 0.000000
0.000000 0.000000 0.000000
-43695.865582 -0.654631 0.000000
-0.654631 -43693.221322 0.000000
0.000000 0.000000 0.000000
-21807.937572 6.642217 0.000000
6.642217 -21804.264810 0.000000
0.000000 0.000000 0.000000
-21729.934908 6.063591 0.000000
6.063591 -21724.158382 0.000000
0.000000 0.000000 0.000000
-21189.348176 6.073659 0.000000
6.073659 -21181.591772 0.000000
0.000000 0.000000 0.000000
-20549.586080 6.315980 0.000000
6.315980 -20540.684519 0.000000
0.000000 0.000000 0.000000
-20091.582759 6.480928 0.000000
6.480928 -20082.086007 0.000000
0.000000 0.000000 0.000000
-19853.381651 6.506715 0.000000
6.506715 -19843.520009 0.000000
0.000000 0.000000 0.000000
-19735.318110 6.494551 0.000000
6.494551 -19725.199010 0.000000
0.000000 0.000000 0.000000
-19818.977309 6.366464 0.000000
6.366464 -19808.563904 0.000000
0.000000 0.000000 0.000000
-19942.838903 6.283991 0.000000
6.283991 -19932.201615 0.000000
0.000000 0.000000 0.000000
-20211.432443 6.157122 0.000000
6.157122 -20200.580100 0.000000
0.000000 0.000000 0.000000
-20622.655026 5.996756 0.000000
5.996756 -20611.582468 0.000000
0.000000 0.000000 0.000000
-20987.008114 5.926276 0.000000
5.926276 -20975.787470 0.000000
0.000000 0.000000 0.000000
-21553.870140 5.755385 0.000000
5.755385 -21542.532412 0.000000
0.000000 0.000000 0.000000
-22138.761995 5.627736 0.000000
5.627736 -22127.300640 0.000000
0.000000 0.000000 0.000000
-22806.153464 5.512739 0.000000
5.512739 -22794.647813 0.000000
0.000000 0.000000 0.000000
-23544.502399 5.391995 0.000000
5.391995 -23532.979617 0.000000
0.000000 0.000000 0.000000
-24433.222218 5.229199 0.000000
5.229199 -24421.770868 0.000000
0.000000 0.000000 0.000000
-25320.162554 5.123433 0.000000
5.123433 -25308.791753 0.000000
0.000000 0.000000 0.000000
-26322.959617 5.007912 0.000000
5.007912 -26311.732385 0.000000
0.000000 0.000000 0.000000
-27506.644230 4.845955 0.000000
4.845955 -27495.660130 0.000000
0.000000 0.000000 0.000000
-28788.581649 4.699346 0.000000
4.699346 -28777.894915 0.000000
0.000000 0.000000 0.000000
-30131.038752 4.583366 0.000000
4.583366 -30120.768880 0.000000
0.000000 0.000000 0.000000
-31724.888096 4.380987 0.000000
4.380987 -31715.149026 0.000000
0.000000 0.000000 0.000000
-33540.158350 4.144766 0.000000
4.144766 -33531.128291 0.000000
0.000000 0.000000 0.000000
-35436.709330 3.950675 0.000000
3.950675 -35428.494075 0.000000
0.000000 0.000000 0.000000
-37940.335467 3.501022 0.000000
3.501022 -37933.239111 0.000000
0.000000 0.000000 0.000000
-40591.836285 2.920251 0.000000
2.920251 -40586.054605 0.000000
0.000000 0.000000 0.000000
-43676.674987 1.892814 0.000000
1.892814 -43672.451807 0.000000
0.000000 0.000000 0.000000
-47251.877849 0.034145 0.000000
0.034145 -47249.195849 0.000000
0.000000 0.000000 0.000000
-22697.053289 5.885456 0.000000
5.885456 -22692.742924 0.000000
0.000000 0.000000 0.000000
-21916.066078 5.808578 0.000000
5.808578 -21909.165137 0.000000
0.000000 0.000000 0.000000
-20996.417131 6.098490 0.000000
6.098490 -20988.122246 0.000000
0.000000 0.000000 0.000000
-20278.465893 6.317701 0.000000
6.317701 -20269.462816 0.000000
0.000000 0.000000 0.000000
-19886.293804 6.343817 0.000000
6.343817 -19876.864594 0.000000
0.000000 0.000000 0.000000
-19686.647300 6.291893 0.000000
6.291893 -19676.833629 0.000000
0.000000 0.000000 0.000000
-19733.399816 6.153821 0.000000
6.153821 -19723.237383 0.000000
0.000000 0.000000 0.000000
-19780.448874 6.073986 0.000000
6.073986 -19769.882490 0.000000
0.000000 0.000000 0.000000
-19984.587929 5.958442 0.000000
5.958442 -19973.693986 0.000000
0.000000 0.000000 0.000000
-20382.779315 5.778560 0.000000
5.778560 -20371.532252 0.000000
0.000000 0.000000 0.000000
-20689.642246 5.738868 0.000000
5.738868 -20678.129820 0.000000
0.000000 0.000000 0.000000
-21194.636586 5.610430 0.000000
5.610430 -21182.902860 0.000000
0.000000 0.000000 0.000000
-21789.864992 5.471111 0.000000
5.471111 -21777.926527 0.000000
0.000000 0.000000 0.000000
-22372.512566 5.391890 0.000000
5.391890 -22360.377550 0.000000
0.000000 0.000000 0.000000
-23097.422597 5.286372 0.000000
5.286372 -23085.178914 0.000000
0.000000 0.000000 0.000000
-23886.072094 5.192415 0.000000
5.192415 -23873.762339 0.000000
0.000000 0.000000 0.000000
-24801.427940 5.070143 0.000000
5.070143 -24789.103348 0.000000
0.000000 0.000000 0.000000
-25756.223872 4.985787 0.000000
4.985787 -25743.922444 0.000000
0.000000 0.000000 0.000000
-26795.260127 4.917866 0.000000
4.917866 -26783.013604 0.000000
0.000000 0.000000 0.000000
-28064.092974 4.768761 0.000000
4.768761 -28051.976160 0.000000
0.000000 0.000000 0.000000
-29387.308129 4.688693 0.000000
4.688693 -29375.448707 0.000000
0.000000 0.000000 0.000000
-30782.917411 4.640119 0.000000
4.640119 -30771.384066 0.000000
0.000000 0.000000 0.000000
-32572.551672 4.457981 0.000000
4.457981 -32561.375020 0.000000
0.000000 0.000000 0.000000
-34516.929633 4.356371 0.000000
4.356371 -34506.310968 0.000000
0.000000 0.000000 0.000000
-36720.394767 4.270060 0.000000
4.270060 -36710.381203 0.000000
0.000000 0.000000 0.000000
-39540.481173 4.031506 0.000000
4.031506 -39531.491550 0.000000
0.000000 0.000000 0.000000
-42804.666910 3.622972 0.000000
3.622972 -42797.118518 0.000000
0.000000 0.000000 0.000000
-46667.509593 2.862830 0.000000
2.862830 -46661.813297 0.000000
0.000000 0.000000 0.000000
-51673.824589 1.112002 0.000000
1.112002 -51670.418033 0.000000
0.000000 0.000000 0.000000
-23029.896274 5.481294 0.000000
5.481294 -23024.443552 0.000000
0.000000 0.000000 0.000000
-21544.584715 5.869784 0.000000
5.869784 -21537.236457 0.000000
0.000000 0.000000 0.000000
-20478.745504 6.104358 0.000000
6.104358 -20470.573402 0.000000
0.000000 0.000000 0.000000
-19891.844773 6.073065 0.000000
6.073065 -19883.161508 0.000000
0.000000 0.000000 0.000000
-19620.167272 5.930058 0.000000
5.930058 -19610.900120 0.000000
0.000000 0.000000 0.000000
-19533.910857 5.835131 0.000000
5.835131 -19524.054803 0.000000
0.000000 0.000000 0.000000
-19628.053563 5.735982 0.000000
5.735982 -19617.683619 0.000000
0.000000 0.000000 0.000000
-19758.191299 5.665393 0.000000
5.665393 -19747.363406 0.000000
0.000000 0.000000 0.000000
-20103.031798 5.493634 0.000000
5.493634 -20091.685157 0.000000
0.000000 0.000000 0.000000
-20397.877923 5.441519 0.000000
5.441519 -20386.134214 0.000000
0.000000 0.000000 0.000000
-20816.476980 5.372701 0.000000
5.372701 -20804.404958 0.000000
0.000000 0.000000 0.000000
-21397.829413 5.253041 0.000000
5.253041 -21385.444929 0.000000
0.000000 0.000000 0.000000
-21981.428477 5.166441 0.000000
5.166441 -21968.753275 0.000000
0.000000 0.000000 0.000000
-22626.051805 5.107638 0.000000
5.107638 -22613.145796 0.000000
0.000000 0.000000 0.000000
-23350.972178 5.036913 0.000000
5.036913 -23337.900048 0.000000
0.000000 0.000000 0.000000
-24233.786641 4.920605 0.000000
4.920605 -24220.566840 0.000000
0.000000 0.000000 0.000000
-25124.259818 4.878076 0.000000
4.878076 -25110.941901 0.000000
0.000000 0.000000 0.000000
-26132.405067 4.815724 0.000000
4.815724 -26119.025394 0.000000
0.000000 0.000000 0.000000
-27298.932830 4.713823 0.000000
4.713823 -27285.565738 0.000000
0.000000 0.000000 0.000000
-28506.331437 4.654588 0.000000
4.654588 -28492.963691 0.000000
0.000000 0.000000 0.000000
-29879.212479 4.628793 0.000000
4.628793 -29866.026564 0.000000
0.000000 0.000000 0.000000
-31556.239968 4.518112 0.000000
4.518112 -31543.186346 0.000000
0.000000 0.000000 0.000000
-33329.818553 4.486913 0.000000
4.486913 -33316.945508 0.000000
0.000000 0.000000 0.000000
-35424.451946 4.417100 0.000000
4.417100 -35411.855499 0.000000
0.000000 0.000000 0.000000
-37884.025618 4.344417 0.000000
4.344417 -37871.810914 0.000000
0.000000 0.000000 0.000000
-40859.853533 4.323388 0.000000
4.323388 -40848.457215 0.000000
0.000000 0.000000 0.000000
-44861.532001 4.131413 0.000000
4.131413 -44851.293951 0.000000
0.000000 0.000000 0.000000
-50055.595753 3.785877 0.000000
3.785877 -50046.997917 0.000000
0.000000 0.000000 0.000000
-57450.369571 2.588697 0.000000
2.588697 -57444.391305 0.000000
0.000000 0.000000 0.000000
