# vtk DataFile Version 2.0
cook_membrance_guass3
ASCII
DATASET POLYDATA
POINTS 66 float
0.000000 0.000000 0.000000
48.000000 44.000000 0.000000
48.000000 60.000000 0.000000
0.000000 44.000000 0.000000
5.920209 5.426858 0.000000
11.558504 10.595295 0.000000
16.928308 15.517615 0.000000
22.042407 20.205540 0.000000
26.912978 24.670230 0.000000
31.551617 28.922315 0.000000
35.969368 32.971920 0.000000
40.176750 36.828687 0.000000
44.183780 40.501799 0.000000
48.000000 47.200000 0.000000
48.000000 50.400000 0.000000
48.000000 53.600000 0.000000
48.000000 56.800000 0.000000
44.183780 58.727927 0.000000
40.176750 57.392250 0.000000
35.969368 55.989789 0.000000
31.551617 54.517206 0.000000
26.912978 52.970993 0.000000
22.042407 51.347469 0.000000
16.928308 49.642769 0.000000
11.558504 47.852835 0.000000
5.920209 45.973403 0.000000
0.000000 35.200000 0.000000
0.000000 26.400000 0.000000
0.000000 17.600000 0.000000
0.000000 8.800000 0.000000
5.920209 13.536167 0.000000
5.920209 21.645476 0.000000
5.920209 29.754785 0.000000
5.920209 37.864094 0.000000
11.558504 18.046803 0.000000
11.558504 25.498311 0.000000
11.558504 32.949819 0.000000
11.558504 40.401327 0.000000
16.928308 22.342646 0.000000
16.928308 29.167677 0.000000
16.928308 35.992708 0.000000
16.928308 42.817738 0.000000
22.042407 26.433926 0.000000
22.042407 32.662311 0.000000
22.042407 38.890697 0.000000
22.042407 45.119083 0.000000
26.912978 30.330382 0.000000
26.912978 35.990535 0.000000
26.912978 41.650687 0.000000
26.912978 47.310840 0.000000
31.551617 34.041293 0.000000
31.551617 39.160271 0.000000
31.551617 44.279249 0.000000
31.551617 49.398227 0.000000
35.969368 37.575494 0.000000
35.969368 42.179068 0.000000
35.969368 46.782642 0.000000
35.969368 51.386215 0.000000
40.176750 40.941400 0.000000
40.176750 45.054112 0.000000
40.176750 49.166825 0.000000
40.176750 53.279537 0.000000
44.183780 44.147024 0.000000
44.183780 47.792250 0.000000
44.183780 51.437476 0.000000
44.183780 55.082701 0.000000
POLYGONS 100 400
3 0 4 29
3 29 4 30
3 29 30 28
3 28 30 31
3 28 31 27
3 27 31 32
3 27 32 26
3 26 32 33
3 26 33 3
3 3 33 25
3 4 5 30
3 30 5 34
3 30 34 31
3 31 34 35
3 31 35 32
3 32 35 36
3 32 36 33
3 33 36 37
3 33 37 25
3 25 37 24
3 5 6 34
3 34 6 38
3 34 38 35
3 35 38 39
3 35 39 36
3 36 39 40
3 36 40 37
3 37 40 41
3 37 41 24
3 24 41 23
3 6 7 38
3 38 7 42
3 38 42 39
3 39 42 43
3 39 43 40
3 40 43 44
3 40 44 41
3 41 44 45
3 41 45 23
3 23 45 22
3 7 8 42
3 42 8 46
3 42 46 43
3 43 46 47
3 43 47 44
3 44 47 48
3 44 48 45
3 45 48 49
3 45 49 22
3 22 49 21
3 8 9 46
3 46 9 50
3 46 50 47
3 47 50 51
3 47 51 48
3 48 51 52
3 48 52 49
3 49 52 53
3 49 53 21
3 21 53 20
3 9 10 50
3 50 10 54
3 50 54 51
3 51 54 55
3 51 55 52
3 52 55 56
3 52 56 53
3 53 56 57
3 53 57 20
3 20 57 19
3 10 11 54
3 54 11 58
3 54 58 55
3 55 58 59
3 55 59 56
3 56 59 60
3 56 60 57
3 57 60 61
3 57 61 19
3 19 61 18
3 11 12 58
3 58 12 62
3 58 62 59
3 59 62 63
3 59 63 60
3 60 63 64
3 60 64 61
3 61 64 65
3 61 65 18
3 18 65 17
3 12 1 62
3 62 1 13
3 62 13 63
3 63 13 14
3 63 14 64
3 64 14 15
3 64 15 65
3 65 15 16
3 65 16 17
3 17 16 2
POINT_DATA 66
VECTORS U float
0.000003 0.000050 0.000000
-1.123543 5.413368 0.000000
-4.270821 5.540841 0.000000
-0.000141 0.000418 0.000000
0.006526 0.228998 0.000000
0.045188 0.462580 0.000000
0.111389 0.768667 0.000000
0.117795 1.139381 0.000000
0.205511 1.511789 0.000000
0.275045 2.057003 0.000000
0.175715 2.793337 0.000000
-0.068910 3.616262 0.000000
-0.507898 4.502813 0.000000
-1.632061 5.433481 0.000000
-2.163947 5.493408 0.000000
-2.751337 5.553626 0.000000
-3.440739 5.583173 0.000000
-3.725681 4.529060 0.000000
-3.201794 3.642471 0.000000
-2.686875 2.881645 0.000000
-2.189311 2.226671 0.000000
-1.701735 1.653280 0.000000
-1.207676 1.180759 0.000000
-0.699617 0.824216 0.000000
-0.250875 0.459572 0.000000
-0.024232 0.146758 0.000000
-0.000003 -0.000005 0.000000
0.000013 -0.000008 0.000000
0.000002 -0.000001 0.000000
-0.000010 0.000002 0.000000
0.007308 0.203230 0.000000
0.001128 0.185395 0.000000
0.005719 0.180551 0.000000
0.022691 0.142523 0.000000
0.029704 0.390251 0.000000
0.007669 0.359236 0.000000
0.053441 0.305794 0.000000
0.007136 0.287034 0.000000
0.042226 0.683558 0.000000
0.095218 0.592814 0.000000
0.072193 0.513019 0.000000
-0.163618 0.577518 0.000000
0.162616 1.038556 0.000000
0.174465 0.928220 0.000000
-0.052566 0.899415 0.000000
-0.453451 0.980108 0.000000
0.264580 1.469170 0.000000
0.075939 1.427392 0.000000
-0.280361 1.425286 0.000000
-0.841626 1.506755 0.000000
0.159139 2.066747 0.000000
-0.146779 2.054959 0.000000
-0.625697 2.074964 0.000000
-1.304146 2.141884 0.000000
-0.080401 2.784593 0.000000
-0.498440 2.791944 0.000000
-1.073155 2.820374 0.000000
-1.785213 2.854757 0.000000
-0.466219 3.599863 0.000000
-0.975848 3.620910 0.000000
-1.575787 3.648919 0.000000
-2.287988 3.664194 0.000000
-1.001384 4.496449 0.000000
-1.532443 4.532799 0.000000
-2.131257 4.569854 0.000000
-2.835831 4.581512 0.000000
TENSORS STRESS float
-47.667541 3.348047 0.000000
3.348047 -47.673529 0.000000
0.000000 0.000000 0.000000
-16043.127947 6.978531 0.000000
6.978531 -16038.480401 0.000000
0.000000 0.000000 0.000000
-35351.198739 0.843232 0.000000
0.843232 -35346.893268 0.000000
0.000000 0.000000 0.000000
187.093552 1.506396 0.000000
1.506396 187.249720 0.000000
0.000000 0.000000 0.000000
196.684389 3.174187 0.000000
3.174187 195.873384 0.000000
0.000000 0.000000 0.000000
205.793901 4.686824 0.000000
4.686824 202.338691 0.000000
0.000000 0.000000 0.000000
-565.438700 5.838512 0.000000
5.838512 -571.222614 0.000000
0.000000 0.000000 0.000000
38.014777 6.021881 0.000000
6.021881 33.489711 0.000000
0.000000 0.000000 0.000000
909.879149 9.284288 0.000000
9.284288 908.340422 0.000000
0.000000 0.000000 0.000000
69.594004 11.451771 0.000000
11.451771 71.868398 0.000000
0.000000 0.000000 0.000000
-2693.951170 11.849596 0.000000
11.849596 -2693.399601 0.000000
0.000000 0.000000 0.000000
-7347.048534 10.994603 0.000000
10.994603 -7347.888219 0.000000
0.000000 0.000000 0.000000
-12841.583121 9.187411 0.000000
9.187411 -12840.634961 0.000000
0.000000 0.000000 0.000000
-15043.357601 6.291027 0.000000
6.291027 -15032.518101 0.000000
0.000000 0.000000 0.000000
-16419.812913 5.834558 0.000000
5.834558 -16406.698338 0.000000
0.000000 0.000000 0.000000
-20126.143687 5.010491 0.000000
5.010491 -20113.069485 0.000000
0.000000 0.000000 0.000000
-26176.783894 3.459245 0.000000
3.459245 -26166.090960 0.000000
0.000000 0.000000 0.000000
-28645.655395 -2.036723 0.000000
-2.036723 -28643.395428 0.000000
0.000000 0.000000 0.000000
-21538.816609 -4.431310 0.000000
-4.431310 -21534.572510 0.000000
0.000000 0.000000 0.000000
-14733.604732 -5.491446 0.000000
-5.491446 -14726.417011 0.000000
0.000000 0.000000 0.000000
-10077.834050 -5.547147 0.000000
-5.547147 -10068.388280 0.000000
0.000000 0.000000 0.000000
-7305.654323 -5.981582 0.000000
-5.981582 -7294.649156 0.000000
0.000000 0.000000 0.000000
-4019.691074 -7.593323 0.000000
-7.593323 -4006.549978 0.000000
0.000000 0.000000 0.000000
-1283.923740 -6.269969 0.000000
-6.269969 -1267.132536 0.000000
0.000000 0.000000 0.000000
-414.605381 -0.825874 0.000000
-0.825874 -400.507245 0.000000
0.000000 0.000000 0.000000
38.116571 1.680618 0.000000
1.680618 41.839921 0.000000
0.000000 0.000000 0.000000
-102.075569 2.757947 0.000000
2.757947 -102.031496 0.000000
0.000000 0.000000 0.000000
-58.386770 3.176406 0.000000
3.176406 -58.363069 0.000000
0.000000 0.000000 0.000000
83.506926 3.281702 0.000000
3.281702 83.474329 0.000000
0.000000 0.000000 0.000000
11.187778 3.302790 0.000000
3.302790 11.184230 0.000000
0.000000 0.000000 0.000000
-23.961153 2.600579 0.000000
2.600579 -25.030335 0.000000
0.000000 0.000000 0.000000
-1.933309 2.075194 0.000000
2.075194 -2.163113 0.000000
0.000000 0.000000 0.000000
45.404413 2.205236 0.000000
2.205236 44.700158 0.000000
0.000000 0.000000 0.000000
37.571231 1.663526 0.000000
1.663526 35.799833 0.000000
0.000000 0.000000 0.000000
4.083681 3.348263 0.000000
3.348263 1.961761 0.000000
0.000000 0.000000 0.000000
52.583610 3.435297 0.000000
3.435297 51.263893 0.000000
0.000000 0.000000 0.000000
48.541649 2.759807 0.000000
2.759807 45.677575 0.000000
0.000000 0.000000 0.000000
-232.642999 1.411315 0.000000
1.411315 -230.172990 0.000000
0.000000 0.000000 0.000000
-17.649404 5.744881 0.000000
5.744881 -20.877538 0.000000
0.000000 0.000000 0.000000
468.454975 5.784070 0.000000
5.784070 463.100342 0.000000
0.000000 0.000000 0.000000
-533.987602 3.054669 0.000000
3.054669 -534.712988 0.000000
0.000000 0.000000 0.000000
-904.314648 0.699818 0.000000
0.699818 -896.884167 0.000000
0.000000 0.000000 0.000000
675.351289 8.440032 0.000000
8.440032 668.954554 0.000000
0.000000 0.000000 0.000000
-654.408097 5.942240 0.000000
5.942240 -658.285649 0.000000
0.000000 0.000000 0.000000
-1753.136312 3.267973 0.000000
3.267973 -1751.249983 0.000000
0.000000 0.000000 0.000000
-2478.098543 -0.205609 0.000000
-0.205609 -2469.640435 0.000000
0.000000 0.000000 0.000000
-488.620089 8.351739 0.000000
8.351739 -491.276362 0.000000
0.000000 0.000000 0.000000
-2550.288938 5.847817 0.000000
5.847817 -2550.878889 0.000000
0.000000 0.000000 0.000000
-3721.781219 3.476554 0.000000
3.476554 -3718.405460 0.000000
0.000000 0.000000 0.000000
-5430.324671 -0.804452 0.000000
-0.804452 -5420.965904 0.000000
0.000000 0.000000 0.000000
-2583.027364 8.398348 0.000000
8.398348 -2582.617283 0.000000
0.000000 0.000000 0.000000
-4579.928604 6.128375 0.000000
6.128375 -4578.295956 0.000000
0.000000 0.000000 0.000000
-6675.578068 2.975835 0.000000
2.975835 -6670.010687 0.000000
0.000000 0.000000 0.000000
-8448.671144 -0.815358 0.000000
-0.815358 -8440.205835 0.000000
0.000000 0.000000 0.000000
-5273.100324 8.450511 0.000000
8.450511 -5271.277234 0.000000
0.000000 0.000000 0.000000
-7753.758109 5.658560 0.000000
5.658560 -7749.330443 0.000000
0.000000 0.000000 0.000000
-9832.636145 3.075003 0.000000
3.075003 -9826.295037 0.000000
0.000000 0.000000 0.000000
-11707.075865 0.130577 0.000000
0.130577 -11700.109192 0.000000
0.000000 0.000000 0.000000
-9223.504246 7.770120 0.000000
7.770120 -9219.169014 0.000000
0.000000 0.000000 0.000000
-11143.833918 5.840606 0.000000
5.840606 -11137.092457 0.000000
0.000000 0.000000 0.000000
-13186.832424 4.136098 0.000000
4.136098 -13179.715833 0.000000
0.000000 0.000000 0.000000
-16130.641555 1.486319 0.000000
1.486319 -16123.957070 0.000000
0.000000 0.000000 0.000000
-12872.158944 7.345879 0.000000
7.345879 -12864.907668 0.000000
0.000000 0.000000 0.000000
-14208.289003 6.441102 0.000000
6.441102 -14198.959416 0.000000
0.000000 0.000000 0.000000
-16854.864081 5.239690 0.000000
5.239690 -16845.545909 0.000000
0.000000 0.000000 0.000000
-21463.454638 2.649652 0.000000
2.649652 -21455.942739 0.000000
0.000000 0.000000 0.000000
