# vtk DataFile Version 2.0
cook_membrance_rkgsi_mix
ASCII
DATASET POLYDATA
POINTS 66 float
0.000000 0.000000 0.000000
48.000000 44.000000 0.000000
48.000000 60.000000 0.000000
0.000000 44.000000 0.000000
5.920209 5.426858 0.000000
11.558504 10.595295 0.000000
16.928308 15.517615 0.000000
22.042407 20.205540 0.000000
26.912978 24.670230 0.000000
31.551617 28.922315 0.000000
35.969368 32.971920 0.000000
40.176750 36.828687 0.000000
44.183780 40.501799 0.000000
48.000000 47.200000 0.000000
48.000000 50.400000 0.000000
48.000000 53.600000 0.000000
48.000000 56.800000 0.000000
44.183780 58.727927 0.000000
40.176750 57.392250 0.000000
35.969368 55.989789 0.000000
31.551617 54.517206 0.000000
26.912978 52.970993 0.000000
22.042407 51.347469 0.000000
16.928308 49.642769 0.000000
11.558504 47.852835 0.000000
5.920209 45.973403 0.000000
0.000000 35.200000 0.000000
0.000000 26.400000 0.000000
0.000000 17.600000 0.000000
0.000000 8.800000 0.000000
5.920209 13.536167 0.000000
5.920209 21.645476 0.000000
5.920209 29.754785 0.000000
5.920209 37.864094 0.000000
11.558504 18.046803 0.000000
11.558504 25.498311 0.000000
11.558504 32.949819 0.000000
11.558504 40.401327 0.000000
16.928308 22.342646 0.000000
16.928308 29.167677 0.000000
16.928308 35.992708 0.000000
16.928308 42.817738 0.000000
22.042407 26.433926 0.000000
22.042407 32.662311 0.000000
22.042407 38.890697 0.000000
22.042407 45.119083 0.000000
26.912978 30.330382 0.000000
26.912978 35.990535 0.000000
26.912978 41.650687 0.000000
26.912978 47.310840 0.000000
31.551617 34.041293 0.000000
31.551617 39.160271 0.000000
31.551617 44.279249 0.000000
31.551617 49.398227 0.000000
35.969368 37.575494 0.000000
35.969368 42.179068 0.000000
35.969368 46.782642 0.000000
35.969368 51.386215 0.000000
40.176750 40.941400 0.000000
40.176750 45.054112 0.000000
40.176750 49.166825 0.000000
40.176750 53.279537 0.000000
44.183780 44.147024 0.000000
44.183780 47.792250 0.000000
44.183780 51.437476 0.000000
44.183780 55.082701 0.000000
POLYGONS 100 400
3 0 4 29
3 29 4 30
3 29 30 28
3 28 30 31
3 28 31 27
3 27 31 32
3 27 32 26
3 26 32 33
3 26 33 3
3 3 33 25
3 4 5 30
3 30 5 34
3 30 34 31
3 31 34 35
3 31 35 32
3 32 35 36
3 32 36 33
3 33 36 37
3 33 37 25
3 25 37 24
3 5 6 34
3 34 6 38
3 34 38 35
3 35 38 39
3 35 39 36
3 36 39 40
3 36 40 37
3 37 40 41
3 37 41 24
3 24 41 23
3 6 7 38
3 38 7 42
3 38 42 39
3 39 42 43
3 39 43 40
3 40 43 44
3 40 44 41
3 41 44 45
3 41 45 23
3 23 45 22
3 7 8 42
3 42 8 46
3 42 46 43
3 43 46 47
3 43 47 44
3 44 47 48
3 44 48 45
3 45 48 49
3 45 49 22
3 22 49 21
3 8 9 46
3 46 9 50
3 46 50 47
3 47 50 51
3 47 51 48
3 48 51 52
3 48 52 49
3 49 52 53
3 49 53 21
3 21 53 20
3 9 10 50
3 50 10 54
3 50 54 51
3 51 54 55
3 51 55 52
3 52 55 56
3 52 56 53
3 53 56 57
3 53 57 20
3 20 57 19
3 10 11 54
3 54 11 58
3 54 58 55
3 55 58 59
3 55 59 56
3 56 59 60
3 56 60 57
3 57 60 61
3 57 61 19
3 19 61 18
3 11 12 58
3 58 12 62
3 58 62 59
3 59 62 63
3 59 63 60
3 60 63 64
3 60 64 61
3 61 64 65
3 61 65 18
3 18 65 17
3 12 1 62
3 62 1 13
3 62 13 63
3 63 13 14
3 63 14 64
3 64 14 15
3 64 15 65
3 65 15 16
3 65 16 17
3 17 16 2
POINT_DATA 66
VECTORS U float
-0.000085 0.015746 0.000000
0.002202 0.176035 0.000000
0.000006 0.016524 0.000000
-0.003156 0.169895 0.000000
0.000025 0.017223 0.000000
-0.004918 0.186516 0.000000
-0.000072 0.016984 0.000000
0.015716 0.169000 0.000000
0.000262 0.012536 0.000000
-0.008084 0.161255 0.000000
0.003719 0.196914 0.000000
0.015868 0.350645 0.000000
-0.003950 0.187802 0.000000
-0.020029 0.340563 0.000000
-0.005854 0.204973 0.000000
0.027844 0.313276 0.000000
0.019019 0.185575 0.000000
0.014996 0.286440 0.000000
-0.011284 0.182808 0.000000
-0.150109 0.410169 0.000000
0.019044 0.384175 0.000000
0.007487 0.650545 0.000000
-0.019773 0.369303 0.000000
0.048348 0.575486 0.000000
0.033304 0.333338 0.000000
0.073031 0.485117 0.000000
0.013272 0.306018 0.000000
-0.110717 0.521471 0.000000
-0.166411 0.435304 0.000000
-0.508138 0.743005 0.000000
0.012166 0.700383 0.000000
0.105111 0.997443 0.000000
0.060882 0.615519 0.000000
0.167994 0.876425 0.000000
0.077135 0.521550 0.000000
-0.010224 0.826173 0.000000
-0.119743 0.555279 0.000000
-0.347762 0.887618 0.000000
-0.525950 0.767045 0.000000
-0.996046 1.095980 0.000000
0.121468 1.048939 0.000000
0.249858 1.381860 0.000000
0.177059 0.932028 0.000000
0.116579 1.330513 0.000000
-0.012651 0.882498 0.000000
-0.196814 1.313763 0.000000
-0.358712 0.936864 0.000000
-0.689600 1.382708 0.000000
-1.005227 1.132023 0.000000
-1.494637 1.539062 0.000000
0.255589 1.446773 0.000000
0.194192 1.935023 0.000000
0.113611 1.402637 0.000000
-0.068317 1.919150 0.000000
-0.204577 1.385860 0.000000
-0.496701 1.930355 0.000000
-0.703939 1.450034 0.000000
-1.127352 1.999238 0.000000
-1.499865 1.596660 0.000000
-1.978923 2.092850 0.000000
0.186189 2.018369 0.000000
-0.004981 2.618484 0.000000
-0.079777 2.005053 0.000000
-0.378654 2.624202 0.000000
-0.513623 2.017021 0.000000
-0.917703 2.654956 0.000000
-1.143814 2.081003 0.000000
-1.598536 2.697189 0.000000
-1.983004 2.166443 0.000000
-2.461405 2.732259 0.000000
-0.022508 2.715546 0.000000
-0.348784 3.406538 0.000000
-0.402247 2.722725 0.000000
-0.829854 3.428903 0.000000
-0.941886 2.753174 0.000000
-1.402599 3.461511 0.000000
-1.616208 2.791838 0.000000
-2.087757 3.482891 0.000000
-2.465858 2.821423 0.000000
-2.961028 3.472785 0.000000
-0.380588 3.515738 0.000000
-0.854714 4.281694 0.000000
-0.864439 3.538299 0.000000
-1.363291 4.318516 0.000000
-1.432610 3.571364 0.000000
-1.940888 4.357880 0.000000
-2.109634 3.592482 0.000000
-2.618937 4.375926 0.000000
-2.967893 3.580715 0.000000
-3.478855 4.338060 0.000000
-0.900245 4.399068 0.000000
-1.459351 5.203968 0.000000
-1.406731 4.436850 0.000000
-1.974161 5.262888 0.000000
-1.979314 4.478801 0.000000
-2.541542 5.323393 0.000000
-2.648523 4.499731 0.000000
-3.209631 5.355254 0.000000
-3.490960 4.464902 0.000000
-4.007283 5.315985 0.000000
TENSORS STRESS float
1328.758805 37.132296 0.000000
37.132296 1327.751386 0.000000
0.000000 0.000000 0.000000
-524.131093 32.345092 0.000000
32.345092 -528.353985 0.000000
0.000000 0.000000 0.000000
-140.572495 35.558993 0.000000
35.558993 -141.238095 0.000000
0.000000 0.000000 0.000000
432.233329 27.848084 0.000000
27.848084 431.830304 0.000000
0.000000 0.000000 0.000000
150.462738 35.603742 0.000000
35.603742 152.763446 0.000000
0.000000 0.000000 0.000000
-913.472754 29.662930 0.000000
29.662930 -906.622257 0.000000
0.000000 0.000000 0.000000
-1269.747087 38.930325 0.000000
38.930325 -1269.006346 0.000000
0.000000 0.000000 0.000000
343.393084 30.860469 0.000000
30.860469 333.989374 0.000000
0.000000 0.000000 0.000000
723.585562 33.085290 0.000000
33.085290 714.422621 0.000000
0.000000 0.000000 0.000000
-52.859856 25.093928 0.000000
25.093928 -55.610901 0.000000
0.000000 0.000000 0.000000
-2.346774 38.638307 0.000000
38.638307 -19.163299 0.000000
0.000000 0.000000 0.000000
-643.792039 41.609379 0.000000
41.609379 -668.504538 0.000000
0.000000 0.000000 0.000000
422.328829 28.564954 0.000000
28.564954 415.243552 0.000000
0.000000 0.000000 0.000000
-447.774868 32.266402 0.000000
32.266402 -446.507113 0.000000
0.000000 0.000000 0.000000
-519.559245 28.474933 0.000000
28.474933 -511.795156 0.000000
0.000000 0.000000 0.000000
439.235531 34.930449 0.000000
34.930449 428.270630 0.000000
0.000000 0.000000 0.000000
1370.873770 26.491795 0.000000
26.491795 1353.455750 0.000000
0.000000 0.000000 0.000000
699.744909 20.741400 0.000000
20.741400 687.149165 0.000000
0.000000 0.000000 0.000000
-1903.596647 18.230995 0.000000
18.230995 -1892.858772 0.000000
0.000000 0.000000 0.000000
-2079.610236 16.638171 0.000000
16.638171 -2009.685737 0.000000
0.000000 0.000000 0.000000
-874.670518 62.383627 0.000000
62.383627 -922.499344 0.000000
0.000000 0.000000 0.000000
-2653.834942 61.496126 0.000000
61.496126 -2690.783510 0.000000
0.000000 0.000000 0.000000
-1235.756738 50.780000 0.000000
50.780000 -1248.773109 0.000000
0.000000 0.000000 0.000000
2231.574964 66.127010 0.000000
66.127010 2195.969245 0.000000
0.000000 0.000000 0.000000
2645.853984 52.643019 0.000000
52.643019 2609.110299 0.000000
0.000000 0.000000 0.000000
688.598180 49.349723 0.000000
49.349723 641.865609 0.000000
0.000000 0.000000 0.000000
-1327.382715 26.558794 0.000000
26.558794 -1338.860268 0.000000
0.000000 0.000000 0.000000
-5218.716562 19.227309 0.000000
19.227309 -5183.493379 0.000000
0.000000 0.000000 0.000000
-4028.868404 10.509431 0.000000
10.509431 -3940.600314 0.000000
0.000000 0.000000 0.000000
-6689.479482 -11.272960 0.000000
-11.272960 -6532.466227 0.000000
0.000000 0.000000 0.000000
-5989.900045 72.719696 0.000000
72.719696 -6048.599807 0.000000
0.000000 0.000000 0.000000
1132.209794 88.081845 0.000000
88.081845 1067.566720 0.000000
0.000000 0.000000 0.000000
7207.189859 89.121569 0.000000
89.121569 7138.288817 0.000000
0.000000 0.000000 0.000000
6944.197924 90.927813 0.000000
90.927813 6862.267270 0.000000
0.000000 0.000000 0.000000
-652.672078 64.473212 0.000000
64.473212 -710.182777 0.000000
0.000000 0.000000 0.000000
-11393.173711 50.472720 0.000000
50.472720 -11412.742482 0.000000
0.000000 0.000000 0.000000
-11784.016251 28.655174 0.000000
28.655174 -11754.844997 0.000000
0.000000 0.000000 0.000000
-17173.253641 19.703307 0.000000
19.703307 -17106.469665 0.000000
0.000000 0.000000 0.000000
-15112.101453 -10.803455 0.000000
-10.803455 -14976.783419 0.000000
0.000000 0.000000 0.000000
-25563.952912 -52.602297 0.000000
-52.602297 -25385.274243 0.000000
0.000000 0.000000 0.000000
6619.642314 97.342467 0.000000
97.342467 6555.632840 0.000000
0.000000 0.000000 0.000000
9463.183747 114.429421 0.000000
114.429421 9404.104775 0.000000
0.000000 0.000000 0.000000
3321.546372 100.245870 0.000000
100.245870 3251.262058 0.000000
0.000000 0.000000 0.000000
-13410.203699 84.757863 0.000000
84.757863 -13449.030640 0.000000
0.000000 0.000000 0.000000
-19407.073103 62.490998 0.000000
62.490998 -19426.930805 0.000000
0.000000 0.000000 0.000000
-30465.939691 54.810219 0.000000
54.810219 -30458.741926 0.000000
0.000000 0.000000 0.000000
-29051.570627 32.236423 0.000000
32.236423 -29004.398467 0.000000
0.000000 0.000000 0.000000
-43266.588081 15.546003 0.000000
15.546003 -43181.407940 0.000000
0.000000 0.000000 0.000000
-42807.488543 -30.370870 0.000000
-30.370870 -42663.619119 0.000000
0.000000 0.000000 0.000000
-62655.085041 -62.547955 0.000000
-62.547955 -62497.361596 0.000000
0.000000 0.000000 0.000000
7160.076972 127.320442 0.000000
127.320442 7148.496327 0.000000
0.000000 0.000000 0.000000
-8807.302630 119.132959 0.000000
119.132959 -8808.090313 0.000000
0.000000 0.000000 0.000000
-20845.432348 95.063083 0.000000
95.063083 -20861.585066 0.000000
0.000000 0.000000 0.000000
-36841.662930 87.144791 0.000000
87.144791 -36844.493010 0.000000
0.000000 0.000000 0.000000
-41558.639093 67.824341 0.000000
67.824341 -41551.055280 0.000000
0.000000 0.000000 0.000000
-58385.078105 56.657557 0.000000
56.657557 -58348.061573 0.000000
0.000000 0.000000 0.000000
-61835.821461 28.741384 0.000000
28.741384 -61761.866884 0.000000
0.000000 0.000000 0.000000
-83358.955214 8.712690 0.000000
8.712690 -83255.944273 0.000000
0.000000 0.000000 0.000000
-83702.574724 -32.787346 0.000000
-32.787346 -83568.771993 0.000000
0.000000 0.000000 0.000000
-104160.731417 -52.979446 0.000000
-52.979446 -104032.146007 0.000000
0.000000 0.000000 0.000000
-15875.271819 135.444234 0.000000
135.444234 -15859.000145 0.000000
0.000000 0.000000 0.000000
-38436.634909 122.557587 0.000000
122.557587 -38425.480626 0.000000
0.000000 0.000000 0.000000
-47848.546212 99.232002 0.000000
99.232002 -47837.760949 0.000000
0.000000 0.000000 0.000000
-68488.604019 88.340908 0.000000
88.340908 -68457.732782 0.000000
0.000000 0.000000 0.000000
-75062.684886 65.676750 0.000000
65.676750 -75017.797932 0.000000
0.000000 0.000000 0.000000
-98666.009980 51.011597 0.000000
51.011597 -98595.019163 0.000000
0.000000 0.000000 0.000000
-101882.569597 24.445478 0.000000
24.445478 -101792.277638 0.000000
0.000000 0.000000 0.000000
-122926.795295 11.417990 0.000000
11.417990 -122831.110603 0.000000
0.000000 0.000000 0.000000
-123531.229031 -25.549754 0.000000
-25.549754 -123422.632035 0.000000
0.000000 0.000000 0.000000
-148842.517523 -44.048334 0.000000
-44.048334 -148741.886443 0.000000
0.000000 0.000000 0.000000
-56792.597097 134.907458 0.000000
134.907458 -56785.081183 0.000000
0.000000 0.000000 0.000000
-83870.379287 117.672515 0.000000
117.672515 -83842.945631 0.000000
0.000000 0.000000 0.000000
-87198.858842 95.456760 0.000000
95.456760 -87153.485445 0.000000
0.000000 0.000000 0.000000
-115232.516097 81.409632 0.000000
81.409632 -115162.851217 0.000000
0.000000 0.000000 0.000000
-117960.345269 62.526370 0.000000
62.526370 -117882.875777 0.000000
0.000000 0.000000 0.000000
-138871.389035 57.044467 0.000000
57.044467 -138783.439514 0.000000
0.000000 0.000000 0.000000
-142451.368875 32.053868 0.000000
32.053868 -142363.007833 0.000000
0.000000 0.000000 0.000000
-167285.079379 25.667896 0.000000
25.667896 -167195.707667 0.000000
0.000000 0.000000 0.000000
-174119.918240 -12.986447 0.000000
-12.986447 -174031.853592 0.000000
0.000000 0.000000 0.000000
-215219.595070 -32.983278 0.000000
-32.983278 -215141.354173 0.000000
0.000000 0.000000 0.000000
-115791.462020 122.370321 0.000000
122.370321 -115768.662547 0.000000
0.000000 0.000000 0.000000
-142762.283823 104.137527 0.000000
104.137527 -142702.654895 0.000000
0.000000 0.000000 0.000000
-137462.113862 89.652346 0.000000
89.652346 -137379.968928 0.000000
0.000000 0.000000 0.000000
-154794.067284 87.102514 0.000000
87.102514 -154690.917223 0.000000
0.000000 0.000000 0.000000
-157135.690720 72.981821 0.000000
72.981821 -157035.682631 0.000000
0.000000 0.000000 0.000000
-182643.066964 69.430893 0.000000
69.430893 -182532.664518 0.000000
0.000000 0.000000 0.000000
-189773.624648 49.121829 0.000000
49.121829 -189674.950365 0.000000
0.000000 0.000000 0.000000
-223950.582086 43.637926 0.000000
43.637926 -223849.273561 0.000000
0.000000 0.000000 0.000000
-243780.033667 3.152662 0.000000
3.152662 -243699.433912 0.000000
0.000000 0.000000 0.000000
-297332.923643 -12.784921 0.000000
-12.784921 -297268.313209 0.000000
0.000000 0.000000 0.000000
-174071.380940 102.557972 0.000000
102.557972 -174012.747436 0.000000
0.000000 0.000000 0.000000
-179366.834703 93.203463 0.000000
93.203463 -179265.994831 0.000000
0.000000 0.000000 0.000000
-172180.893993 91.287485 0.000000
91.287485 -172060.622159 0.000000
0.000000 0.000000 0.000000
-189328.348660 83.145842 0.000000
83.145842 -189182.818888 0.000000
0.000000 0.000000 0.000000
-198299.127324 78.455584 0.000000
78.455584 -198162.440735 0.000000
0.000000 0.000000 0.000000
-221136.542031 73.563977 0.000000
73.563977 -220984.725552 0.000000
0.000000 0.000000 0.000000
-242271.356145 60.276735 0.000000
60.276735 -242143.128522 0.000000
0.000000 0.000000 0.000000
-281969.610182 49.576883 0.000000
49.576883 -281836.680864 0.000000
0.000000 0.000000 0.000000
-317174.724219 21.676988 0.000000
21.676988 -317085.475787 0.000000
0.000000 0.000000 0.000000
-367591.667084 13.185630 0.000000
13.185630 -367525.254111 0.000000
0.000000 0.000000 0.000000
