# vtk DataFile Version 2.0
cook_membrance_guass3
ASCII
DATASET POLYDATA
POINTS 861 float
0.000000 0.000000 0.000000
48.000000 44.000000 0.000000
48.000000 60.000000 0.000000
0.000000 44.000000 0.000000
1.720270 1.576915 0.000000
3.406810 3.122909 0.000000
5.060280 4.638590 0.000000
6.681330 6.124552 0.000000
8.270594 7.581378 0.000000
9.828696 9.009638 0.000000
11.356247 10.409893 0.000000
12.853846 11.782692 0.000000
14.322080 13.128573 0.000000
15.761525 14.448065 0.000000
17.172746 15.741684 0.000000
18.556296 17.009938 0.000000
19.912718 18.253325 0.000000
21.242543 19.472331 0.000000
22.546293 20.667435 0.000000
23.824479 21.839106 0.000000
25.077603 22.987803 0.000000
26.306156 24.113976 0.000000
27.510619 25.218068 0.000000
28.691466 26.300510 0.000000
29.849159 27.361729 0.000000
30.984152 28.402139 0.000000
32.096890 29.422149 0.000000
33.187809 30.422159 0.000000
34.257338 31.402560 0.000000
35.305896 32.363738 0.000000
36.333894 33.306070 0.000000
37.341736 34.229924 0.000000
38.329815 35.135664 0.000000
39.298521 36.023644 0.000000
40.248232 36.894213 0.000000
41.179321 37.747711 0.000000
42.092154 38.584475 0.000000
42.987088 39.404831 0.000000
43.864475 40.209102 0.000000
44.724657 40.997603 0.000000
45.567974 41.770643 0.000000
46.394755 42.528525 0.000000
47.205324 43.271547 0.000000
48.000000 44.800000 0.000000
48.000000 45.600000 0.000000
48.000000 46.400000 0.000000
48.000000 47.200000 0.000000
48.000000 48.000000 0.000000
48.000000 48.800000 0.000000
48.000000 49.600000 0.000000
48.000000 50.400000 0.000000
48.000000 51.200000 0.000000
48.000000 52.000000 0.000000
48.000000 52.800000 0.000000
48.000000 53.600000 0.000000
48.000000 54.400000 0.000000
48.000000 55.200000 0.000000
48.000000 56.000000 0.000000
48.000000 56.800000 0.000000
48.000000 57.600000 0.000000
48.000000 58.400000 0.000000
48.000000 59.200000 0.000000
47.205324 59.735108 0.000000
46.394755 59.464918 0.000000
45.567974 59.189325 0.000000
44.724657 58.908219 0.000000
43.864475 58.621492 0.000000
42.987088 58.329029 0.000000
42.092154 58.030718 0.000000
41.179321 57.726440 0.000000
40.248232 57.416077 0.000000
39.298521 57.099507 0.000000
38.329815 56.776605 0.000000
37.341736 56.447245 0.000000
36.333894 56.111298 0.000000
35.305896 55.768632 0.000000
34.257338 55.419113 0.000000
33.187809 55.062603 0.000000
32.096890 54.698963 0.000000
30.984152 54.328051 0.000000
29.849159 53.949720 0.000000
28.691466 53.563822 0.000000
27.510619 53.170206 0.000000
26.306156 52.768719 0.000000
25.077603 52.359201 0.000000
23.824479 51.941493 0.000000
22.546293 51.515431 0.000000
21.242543 51.080848 0.000000
19.912718 50.637573 0.000000
18.556296 50.185432 0.000000
17.172746 49.724249 0.000000
15.761525 49.253842 0.000000
14.322080 48.774027 0.000000
12.853846 48.284615 0.000000
11.356247 47.785416 0.000000
9.828696 47.276232 0.000000
8.270594 46.756865 0.000000
6.681330 46.227110 0.000000
5.060280 45.686760 0.000000
3.406810 45.135603 0.000000
1.720270 44.573423 0.000000
0.000000 41.800000 0.000000
0.000000 39.600000 0.000000
0.000000 37.400000 0.000000
0.000000 35.200000 0.000000
0.000000 33.000000 0.000000
0.000000 30.800000 0.000000
0.000000 28.600000 0.000000
0.000000 26.400000 0.000000
0.000000 24.200000 0.000000
0.000000 22.000000 0.000000
0.000000 19.800000 0.000000
0.000000 17.600000 0.000000
0.000000 15.400000 0.000000
0.000000 13.200000 0.000000
0.000000 11.000000 0.000000
0.000000 8.800000 0.000000
0.000000 6.600000 0.000000
0.000000 4.400000 0.000000
0.000000 2.200000 0.000000
1.720270 3.726740 0.000000
1.720270 5.876565 0.000000
1.720270 8.026391 0.000000
1.720270 10.176216 0.000000
1.720270 12.326042 0.000000
1.720270 14.475867 0.000000
1.720270 16.625693 0.000000
1.720270 18.775518 0.000000
1.720270 20.925344 0.000000
1.720270 23.075169 0.000000
1.720270 25.224994 0.000000
1.720270 27.374820 0.000000
1.720270 29.524645 0.000000
1.720270 31.674471 0.000000
1.720270 33.824296 0.000000
1.720270 35.974122 0.000000
1.720270 38.123947 0.000000
1.720270 40.273773 0.000000
1.720270 42.423598 0.000000
3.406810 5.223544 0.000000
3.406810 7.324179 0.000000
3.406810 9.424813 0.000000
3.406810 11.525448 0.000000
3.406810 13.626083 0.000000
3.406810 15.726718 0.000000
3.406810 17.827352 0.000000
3.406810 19.927987 0.000000
3.406810 22.028622 0.000000
3.406810 24.129256 0.000000
3.406810 26.229891 0.000000
3.406810 28.330526 0.000000
3.406810 30.431160 0.000000
3.406810 32.531795 0.000000
3.406810 34.632430 0.000000
3.406810 36.733065 0.000000
3.406810 38.833699 0.000000
3.406810 40.934334 0.000000
3.406810 43.034969 0.000000
5.060280 6.690999 0.000000
5.060280 8.743407 0.000000
5.060280 10.795816 0.000000
5.060280 12.848224 0.000000
5.060280 14.900633 0.000000
5.060280 16.953041 0.000000
5.060280 19.005450 0.000000
5.060280 21.057858 0.000000
5.060280 23.110267 0.000000
5.060280 25.162675 0.000000
5.060280 27.215084 0.000000
5.060280 29.267492 0.000000
5.060280 31.319901 0.000000
5.060280 33.372309 0.000000
5.060280 35.424718 0.000000
5.060280 37.477126 0.000000
5.060280 39.529535 0.000000
5.060280 41.581943 0.000000
5.060280 43.634352 0.000000
6.681330 8.129680 0.000000
6.681330 10.134808 0.000000
6.681330 12.139936 0.000000
6.681330 14.145064 0.000000
6.681330 16.150192 0.000000
6.681330 18.155320 0.000000
6.681330 20.160447 0.000000
6.681330 22.165575 0.000000
6.681330 24.170703 0.000000
6.681330 26.175831 0.000000
6.681330 28.180959 0.000000
6.681330 30.186087 0.000000
6.681330 32.191215 0.000000
6.681330 34.196343 0.000000
6.681330 36.201471 0.000000
6.681330 38.206598 0.000000
6.681330 40.211726 0.000000
6.681330 42.216854 0.000000
6.681330 44.221982 0.000000
8.270594 9.540152 0.000000
8.270594 11.498926 0.000000
8.270594 13.457701 0.000000
8.270594 15.416475 0.000000
8.270594 17.375249 0.000000
8.270594 19.334024 0.000000
8.270594 21.292798 0.000000
8.270594 23.251572 0.000000
8.270594 25.210347 0.000000
8.270594 27.169121 0.000000
8.270594 29.127895 0.000000
8.270594 31.086670 0.000000
8.270594 33.045444 0.000000
8.270594 35.004219 0.000000
8.270594 36.962993 0.000000
8.270594 38.921767 0.000000
8.270594 40.880542 0.000000
8.270594 42.839316 0.000000
8.270594 44.798090 0.000000
9.828696 10.922967 0.000000
9.828696 12.836297 0.000000
9.828696 14.749627 0.000000
9.828696 16.662957 0.000000
9.828696 18.576286 0.000000
9.828696 20.489616 0.000000
9.828696 22.402946 0.000000
9.828696 24.316275 0.000000
9.828696 26.229605 0.000000
9.828696 28.142935 0.000000
9.828696 30.056265 0.000000
9.828696 31.969594 0.000000
9.828696 33.882924 0.000000
9.828696 35.796254 0.000000
9.828696 37.709583 0.000000
9.828696 39.622913 0.000000
9.828696 41.536243 0.000000
9.828696 43.449573 0.000000
9.828696 45.362902 0.000000
11.356247 12.278669 0.000000
11.356247 14.147445 0.000000
11.356247 16.016221 0.000000
11.356247 17.884997 0.000000
11.356247 19.753774 0.000000
11.356247 21.622550 0.000000
11.356247 23.491326 0.000000
11.356247 25.360102 0.000000
11.356247 27.228878 0.000000
11.356247 29.097654 0.000000
11.356247 30.966430 0.000000
11.356247 32.835206 0.000000
11.356247 34.703983 0.000000
11.356247 36.572759 0.000000
11.356247 38.441535 0.000000
11.356247 40.310311 0.000000
11.356247 42.179087 0.000000
11.356247 44.047863 0.000000
11.356247 45.916639 0.000000
12.853846 13.607788 0.000000
12.853846 15.432884 0.000000
12.853846 17.257980 0.000000
12.853846 19.083077 0.000000
12.853846 20.908173 0.000000
12.853846 22.733269 0.000000
12.853846 24.558365 0.000000
12.853846 26.383461 0.000000
12.853846 28.208557 0.000000
12.853846 30.033654 0.000000
12.853846 31.858750 0.000000
12.853846 33.683846 0.000000
12.853846 35.508942 0.000000
12.853846 37.334038 0.000000
12.853846 39.159134 0.000000
12.853846 40.984231 0.000000
12.853846 42.809327 0.000000
12.853846 44.634423 0.000000
12.853846 46.459519 0.000000
14.322080 14.910846 0.000000
14.322080 16.693119 0.000000
14.322080 18.475391 0.000000
14.322080 20.257664 0.000000
14.322080 22.039937 0.000000
14.322080 23.822209 0.000000
14.322080 25.604482 0.000000
14.322080 27.386755 0.000000
14.322080 29.169027 0.000000
14.322080 30.951300 0.000000
14.322080 32.733573 0.000000
14.322080 34.515845 0.000000
14.322080 36.298118 0.000000
14.322080 38.080391 0.000000
14.322080 39.862663 0.000000
14.322080 41.644936 0.000000
14.322080 43.427209 0.000000
14.322080 45.209481 0.000000
14.322080 46.991754 0.000000
15.761525 16.188354 0.000000
15.761525 17.928643 0.000000
15.761525 19.668931 0.000000
15.761525 21.409220 0.000000
15.761525 23.149509 0.000000
15.761525 24.889798 0.000000
15.761525 26.630087 0.000000
15.761525 28.370376 0.000000
15.761525 30.110665 0.000000
15.761525 31.850953 0.000000
15.761525 33.591242 0.000000
15.761525 35.331531 0.000000
15.761525 37.071820 0.000000
15.761525 38.812109 0.000000
15.761525 40.552398 0.000000
15.761525 42.292686 0.000000
15.761525 44.032975 0.000000
15.761525 45.773264 0.000000
15.761525 47.513553 0.000000
17.172746 17.440812 0.000000
17.172746 19.139941 0.000000
17.172746 20.839069 0.000000
17.172746 22.538197 0.000000
17.172746 24.237325 0.000000
17.172746 25.936454 0.000000
17.172746 27.635582 0.000000
17.172746 29.334710 0.000000
17.172746 31.033838 0.000000
17.172746 32.732966 0.000000
17.172746 34.432095 0.000000
17.172746 36.131223 0.000000
17.172746 37.830351 0.000000
17.172746 39.529479 0.000000
17.172746 41.228608 0.000000
17.172746 42.927736 0.000000
17.172746 44.626864 0.000000
17.172746 46.325992 0.000000
17.172746 48.025121 0.000000
18.556296 18.668713 0.000000
18.556296 20.327488 0.000000
18.556296 21.986262 0.000000
18.556296 23.645037 0.000000
18.556296 25.303812 0.000000
18.556296 26.962586 0.000000
18.556296 28.621361 0.000000
18.556296 30.280136 0.000000
18.556296 31.938910 0.000000
18.556296 33.597685 0.000000
18.556296 35.256460 0.000000
18.556296 36.915235 0.000000
18.556296 38.574009 0.000000
18.556296 40.232784 0.000000
18.556296 41.891559 0.000000
18.556296 43.550333 0.000000
18.556296 45.209108 0.000000
18.556296 46.867883 0.000000
18.556296 48.526657 0.000000
19.912718 19.872537 0.000000
19.912718 21.491749 0.000000
19.912718 23.110962 0.000000
19.912718 24.730174 0.000000
19.912718 26.349387 0.000000
19.912718 27.968599 0.000000
19.912718 29.587811 0.000000
19.912718 31.207024 0.000000
19.912718 32.826236 0.000000
19.912718 34.445449 0.000000
19.912718 36.064661 0.000000
19.912718 37.683873 0.000000
19.912718 39.303086 0.000000
19.912718 40.922298 0.000000
19.912718 42.541511 0.000000
19.912718 44.160723 0.000000
19.912718 45.779935 0.000000
19.912718 47.399148 0.000000
19.912718 49.018360 0.000000
21.242543 21.052757 0.000000
21.242543 22.633183 0.000000
21.242543 24.213608 0.000000
21.242543 25.794034 0.000000
21.242543 27.374460 0.000000
21.242543 28.954886 0.000000
21.242543 30.535312 0.000000
21.242543 32.115738 0.000000
21.242543 33.696163 0.000000
21.242543 35.276589 0.000000
21.242543 36.857015 0.000000
21.242543 38.437441 0.000000
21.242543 40.017867 0.000000
21.242543 41.598293 0.000000
21.242543 43.178718 0.000000
21.242543 44.759144 0.000000
21.242543 46.339570 0.000000
21.242543 47.919996 0.000000
21.242543 49.500422 0.000000
22.546293 22.209835 0.000000
22.546293 23.752235 0.000000
22.546293 25.294635 0.000000
22.546293 26.837034 0.000000
22.546293 28.379434 0.000000
22.546293 29.921834 0.000000
22.546293 31.464234 0.000000
22.546293 33.006633 0.000000
22.546293 34.549033 0.000000
22.546293 36.091433 0.000000
22.546293 37.633833 0.000000
22.546293 39.176233 0.000000
22.546293 40.718632 0.000000
22.546293 42.261032 0.000000
22.546293 43.803432 0.000000
22.546293 45.345832 0.000000
22.546293 46.888232 0.000000
22.546293 48.430631 0.000000
22.546293 49.973031 0.000000
23.824479 23.344225 0.000000
23.824479 24.849345 0.000000
23.824479 26.354464 0.000000
23.824479 27.859583 0.000000
23.824479 29.364703 0.000000
23.824479 30.869822 0.000000
23.824479 32.374941 0.000000
23.824479 33.880061 0.000000
23.824479 35.385180 0.000000
23.824479 36.890300 0.000000
23.824479 38.395419 0.000000
23.824479 39.900538 0.000000
23.824479 41.405658 0.000000
23.824479 42.910777 0.000000
23.824479 44.415896 0.000000
23.824479 45.921016 0.000000
23.824479 47.426135 0.000000
23.824479 48.931254 0.000000
23.824479 50.436374 0.000000
25.077603 24.456373 0.000000
25.077603 25.924943 0.000000
25.077603 27.393513 0.000000
25.077603 28.862082 0.000000
25.077603 30.330652 0.000000
25.077603 31.799222 0.000000
25.077603 33.267792 0.000000
25.077603 34.736362 0.000000
25.077603 36.204932 0.000000
25.077603 37.673502 0.000000
25.077603 39.142072 0.000000
25.077603 40.610642 0.000000
25.077603 42.079212 0.000000
25.077603 43.547782 0.000000
25.077603 45.016351 0.000000
25.077603 46.484921 0.000000
25.077603 47.953491 0.000000
25.077603 49.422061 0.000000
25.077603 50.890631 0.000000
26.306156 25.546713 0.000000
26.306156 26.979450 0.000000
26.306156 28.412188 0.000000
26.306156 29.844925 0.000000
26.306156 31.277662 0.000000
26.306156 32.710399 0.000000
26.306156 34.143136 0.000000
26.306156 35.575873 0.000000
26.306156 37.008610 0.000000
26.306156 38.441347 0.000000
26.306156 39.874085 0.000000
26.306156 41.306822 0.000000
26.306156 42.739559 0.000000
26.306156 44.172296 0.000000
26.306156 45.605033 0.000000
26.306156 47.037770 0.000000
26.306156 48.470507 0.000000
26.306156 49.903244 0.000000
26.306156 51.335981 0.000000
27.510619 26.615675 0.000000
27.510619 28.013282 0.000000
27.510619 29.410889 0.000000
27.510619 30.808495 0.000000
27.510619 32.206102 0.000000
27.510619 33.603709 0.000000
27.510619 35.001316 0.000000
27.510619 36.398923 0.000000
27.510619 37.796530 0.000000
27.510619 39.194137 0.000000
27.510619 40.591744 0.000000
27.510619 41.989351 0.000000
27.510619 43.386958 0.000000
27.510619 44.784565 0.000000
27.510619 46.182172 0.000000
27.510619 47.579779 0.000000
27.510619 48.977386 0.000000
27.510619 50.374993 0.000000
27.510619 51.772600 0.000000
28.691466 27.663676 0.000000
28.691466 29.026842 0.000000
28.691466 30.390007 0.000000
28.691466 31.753173 0.000000
28.691466 33.116338 0.000000
28.691466 34.479504 0.000000
28.691466 35.842669 0.000000
28.691466 37.205835 0.000000
28.691466 38.569001 0.000000
28.691466 39.932166 0.000000
28.691466 41.295332 0.000000
28.691466 42.658497 0.000000
28.691466 44.021663 0.000000
28.691466 45.384829 0.000000
28.691466 46.747994 0.000000
28.691466 48.111160 0.000000
28.691466 49.474325 0.000000
28.691466 50.837491 0.000000
28.691466 52.200656 0.000000
29.849159 28.691128 0.000000
29.849159 30.020528 0.000000
29.849159 31.349927 0.000000
29.849159 32.679327 0.000000
29.849159 34.008726 0.000000
29.849159 35.338126 0.000000
29.849159 36.667526 0.000000
29.849159 37.996925 0.000000
29.849159 39.326325 0.000000
29.849159 40.655724 0.000000
29.849159 41.985124 0.000000
29.849159 43.314523 0.000000
29.849159 44.643923 0.000000
29.849159 45.973322 0.000000
29.849159 47.302722 0.000000
29.849159 48.632121 0.000000
29.849159 49.961521 0.000000
29.849159 51.290920 0.000000
29.849159 52.620320 0.000000
30.984152 29.698434 0.000000
30.984152 30.994730 0.000000
30.984152 32.291026 0.000000
30.984152 33.587321 0.000000
30.984152 34.883617 0.000000
30.984152 36.179912 0.000000
30.984152 37.476208 0.000000
30.984152 38.772504 0.000000
30.984152 40.068799 0.000000
30.984152 41.365095 0.000000
30.984152 42.661390 0.000000
30.984152 43.957686 0.000000
30.984152 45.253981 0.000000
30.984152 46.550277 0.000000
30.984152 47.846573 0.000000
30.984152 49.142868 0.000000
30.984152 50.439164 0.000000
30.984152 51.735459 0.000000
30.984152 53.031755 0.000000
32.096890 30.685990 0.000000
32.096890 31.949830 0.000000
32.096890 33.213671 0.000000
32.096890 34.477512 0.000000
32.096890 35.741352 0.000000
32.096890 37.005193 0.000000
32.096890 38.269034 0.000000
32.096890 39.532875 0.000000
32.096890 40.796715 0.000000
32.096890 42.060556 0.000000
32.096890 43.324397 0.000000
32.096890 44.588237 0.000000
32.096890 45.852078 0.000000
32.096890 47.115919 0.000000
32.096890 48.379760 0.000000
32.096890 49.643600 0.000000
32.096890 50.907441 0.000000
32.096890 52.171282 0.000000
32.096890 53.435122 0.000000
33.187809 31.654181 0.000000
33.187809 32.886203 0.000000
33.187809 34.118225 0.000000
33.187809 35.350247 0.000000
33.187809 36.582270 0.000000
33.187809 37.814292 0.000000
33.187809 39.046314 0.000000
33.187809 40.278336 0.000000
33.187809 41.510359 0.000000
33.187809 42.742381 0.000000
33.187809 43.974403 0.000000
33.187809 45.206425 0.000000
33.187809 46.438448 0.000000
33.187809 47.670470 0.000000
33.187809 48.902492 0.000000
33.187809 50.134514 0.000000
33.187809 51.366536 0.000000
33.187809 52.598559 0.000000
33.187809 53.830581 0.000000
34.257338 32.603388 0.000000
34.257338 33.804215 0.000000
34.257338 35.005043 0.000000
34.257338 36.205871 0.000000
34.257338 37.406698 0.000000
34.257338 38.607526 0.000000
34.257338 39.808354 0.000000
34.257338 41.009181 0.000000
34.257338 42.210009 0.000000
34.257338 43.410837 0.000000
34.257338 44.611664 0.000000
34.257338 45.812492 0.000000
34.257338 47.013319 0.000000
34.257338 48.214147 0.000000
34.257338 49.414975 0.000000
34.257338 50.615802 0.000000
34.257338 51.816630 0.000000
34.257338 53.017458 0.000000
34.257338 54.218285 0.000000
35.305896 33.533983 0.000000
35.305896 34.704228 0.000000
35.305896 35.874472 0.000000
35.305896 37.044717 0.000000
35.305896 38.214962 0.000000
35.305896 39.385207 0.000000
35.305896 40.555451 0.000000
35.305896 41.725696 0.000000
35.305896 42.895941 0.000000
35.305896 44.066185 0.000000
35.305896 45.236430 0.000000
35.305896 46.406675 0.000000
35.305896 47.576919 0.000000
35.305896 48.747164 0.000000
35.305896 49.917409 0.000000
35.305896 51.087653 0.000000
35.305896 52.257898 0.000000
35.305896 53.428143 0.000000
35.305896 54.598387 0.000000
36.333894 34.446331 0.000000
36.333894 35.586593 0.000000
36.333894 36.726854 0.000000
36.333894 37.867116 0.000000
36.333894 39.007377 0.000000
36.333894 40.147638 0.000000
36.333894 41.287900 0.000000
36.333894 42.428161 0.000000
36.333894 43.568423 0.000000
36.333894 44.708684 0.000000
36.333894 45.848945 0.000000
36.333894 46.989207 0.000000
36.333894 48.129468 0.000000
36.333894 49.269730 0.000000
36.333894 50.409991 0.000000
36.333894 51.550252 0.000000
36.333894 52.690514 0.000000
36.333894 53.830775 0.000000
36.333894 54.971037 0.000000
37.341736 35.340790 0.000000
37.341736 36.451656 0.000000
37.341736 37.562522 0.000000
37.341736 38.673388 0.000000
37.341736 39.784255 0.000000
37.341736 40.895121 0.000000
37.341736 42.005987 0.000000
37.341736 43.116853 0.000000
37.341736 44.227719 0.000000
37.341736 45.338585 0.000000
37.341736 46.449451 0.000000
37.341736 47.560317 0.000000
37.341736 48.671183 0.000000
37.341736 49.782049 0.000000
37.341736 50.892915 0.000000
37.341736 52.003781 0.000000
37.341736 53.114647 0.000000
37.341736 54.225513 0.000000
37.341736 55.336379 0.000000
38.329815 36.217711 0.000000
38.329815 37.299758 0.000000
38.329815 38.381805 0.000000
38.329815 39.463852 0.000000
38.329815 40.545899 0.000000
38.329815 41.627946 0.000000
38.329815 42.709993 0.000000
38.329815 43.792040 0.000000
38.329815 44.874087 0.000000
38.329815 45.956134 0.000000
38.329815 47.038182 0.000000
38.329815 48.120229 0.000000
38.329815 49.202276 0.000000
38.329815 50.284323 0.000000
38.329815 51.366370 0.000000
38.329815 52.448417 0.000000
38.329815 53.530464 0.000000
38.329815 54.612511 0.000000
38.329815 55.694558 0.000000
39.298521 37.077437 0.000000
39.298521 38.131230 0.000000
39.298521 39.185023 0.000000
39.298521 40.238817 0.000000
39.298521 41.292610 0.000000
39.298521 42.346403 0.000000
39.298521 43.400196 0.000000
39.298521 44.453989 0.000000
39.298521 45.507782 0.000000
39.298521 46.561575 0.000000
39.298521 47.615369 0.000000
39.298521 48.669162 0.000000
39.298521 49.722955 0.000000
39.298521 50.776748 0.000000
39.298521 51.830541 0.000000
39.298521 52.884334 0.000000
39.298521 53.938127 0.000000
39.298521 54.991921 0.000000
39.298521 56.045714 0.000000
40.248232 37.920306 0.000000
40.248232 38.946399 0.000000
40.248232 39.972492 0.000000
40.248232 40.998586 0.000000
40.248232 42.024679 0.000000
40.248232 43.050772 0.000000
40.248232 44.076865 0.000000
40.248232 45.102958 0.000000
40.248232 46.129052 0.000000
40.248232 47.155145 0.000000
40.248232 48.181238 0.000000
40.248232 49.207331 0.000000
40.248232 50.233425 0.000000
40.248232 51.259518 0.000000
40.248232 52.285611 0.000000
40.248232 53.311704 0.000000
40.248232 54.337798 0.000000
40.248232 55.363891 0.000000
40.248232 56.389984 0.000000
41.179321 38.746648 0.000000
41.179321 39.745584 0.000000
41.179321 40.744521 0.000000
41.179321 41.743457 0.000000
41.179321 42.742394 0.000000
41.179321 43.741330 0.000000
41.179321 44.740266 0.000000
41.179321 45.739203 0.000000
41.179321 46.738139 0.000000
41.179321 47.737076 0.000000
41.179321 48.736012 0.000000
41.179321 49.734949 0.000000
41.179321 50.733885 0.000000
41.179321 51.732822 0.000000
41.179321 52.731758 0.000000
41.179321 53.730695 0.000000
41.179321 54.729631 0.000000
41.179321 55.728568 0.000000
41.179321 56.727504 0.000000
42.092154 39.556787 0.000000
42.092154 40.529099 0.000000
42.092154 41.501411 0.000000
42.092154 42.473723 0.000000
42.092154 43.446036 0.000000
42.092154 44.418348 0.000000
42.092154 45.390660 0.000000
42.092154 46.362972 0.000000
42.092154 47.335284 0.000000
42.092154 48.307596 0.000000
42.092154 49.279909 0.000000
42.092154 50.252221 0.000000
42.092154 51.224533 0.000000
42.092154 52.196845 0.000000
42.092154 53.169157 0.000000
42.092154 54.141469 0.000000
42.092154 55.113782 0.000000
42.092154 56.086094 0.000000
42.092154 57.058406 0.000000
42.987088 40.351041 0.000000
42.987088 41.297251 0.000000
42.987088 42.243461 0.000000
42.987088 43.189671 0.000000
42.987088 44.135881 0.000000
42.987088 45.082091 0.000000
42.987088 46.028300 0.000000
42.987088 46.974510 0.000000
42.987088 47.920720 0.000000
42.987088 48.866930 0.000000
42.987088 49.813140 0.000000
42.987088 50.759350 0.000000
42.987088 51.705560 0.000000
42.987088 52.651770 0.000000
42.987088 53.597980 0.000000
42.987088 54.544190 0.000000
42.987088 55.490400 0.000000
42.987088 56.436610 0.000000
42.987088 57.382820 0.000000
43.864475 41.129721 0.000000
43.864475 42.050341 0.000000
43.864475 42.970960 0.000000
43.864475 43.891580 0.000000
43.864475 44.812199 0.000000
43.864475 45.732819 0.000000
43.864475 46.653438 0.000000
43.864475 47.574058 0.000000
43.864475 48.494677 0.000000
43.864475 49.415297 0.000000
43.864475 50.335916 0.000000
43.864475 51.256536 0.000000
43.864475 52.177155 0.000000
43.864475 53.097775 0.000000
43.864475 54.018394 0.000000
43.864475 54.939014 0.000000
43.864475 55.859633 0.000000
43.864475 56.780253 0.000000
43.864475 57.700872 0.000000
44.724657 41.893134 0.000000
44.724657 42.788664 0.000000
44.724657 43.684195 0.000000
44.724657 44.579726 0.000000
44.724657 45.475257 0.000000
44.724657 46.370788 0.000000
44.724657 47.266318 0.000000
44.724657 48.161849 0.000000
44.724657 49.057380 0.000000
44.724657 49.952911 0.000000
44.724657 50.848442 0.000000
44.724657 51.743973 0.000000
44.724657 52.639503 0.000000
44.724657 53.535034 0.000000
44.724657 54.430565 0.000000
44.724657 55.326096 0.000000
44.724657 56.221627 0.000000
44.724657 57.117158 0.000000
44.724657 58.012688 0.000000
45.567974 42.641577 0.000000
45.567974 43.512511 0.000000
45.567974 44.383445 0.000000
45.567974 45.254379 0.000000
45.567974 46.125313 0.000000
45.567974 46.996247 0.000000
45.567974 47.867181 0.000000
45.567974 48.738115 0.000000
45.567974 49.609050 0.000000
45.567974 50.479984 0.000000
45.567974 51.350918 0.000000
45.567974 52.221852 0.000000
45.567974 53.092786 0.000000
45.567974 53.963720 0.000000
45.567974 54.834654 0.000000
45.567974 55.705588 0.000000
45.567974 56.576522 0.000000
45.567974 57.447456 0.000000
45.567974 58.318391 0.000000
46.394755 43.375345 0.000000
46.394755 44.222164 0.000000
46.394755 45.068984 0.000000
46.394755 45.915804 0.000000
46.394755 46.762623 0.000000
46.394755 47.609443 0.000000
46.394755 48.456263 0.000000
46.394755 49.303082 0.000000
46.394755 50.149902 0.000000
46.394755 50.996722 0.000000
46.394755 51.843541 0.000000
46.394755 52.690361 0.000000
46.394755 53.537181 0.000000
46.394755 54.384000 0.000000
46.394755 55.230820 0.000000
46.394755 56.077640 0.000000
46.394755 56.924459 0.000000
46.394755 57.771279 0.000000
46.394755 58.618099 0.000000
47.205324 44.094725 0.000000
47.205324 44.917903 0.000000
47.205324 45.741081 0.000000
47.205324 46.564259 0.000000
47.205324 47.387437 0.000000
47.205324 48.210615 0.000000
47.205324 49.033793 0.000000
47.205324 49.856971 0.000000
47.205324 50.680150 0.000000
47.205324 51.503328 0.000000
47.205324 52.326506 0.000000
47.205324 53.149684 0.000000
47.205324 53.972862 0.000000
47.205324 54.796040 0.000000
47.205324 55.619218 0.000000
47.205324 56.442396 0.000000
47.205324 57.265574 0.000000
47.205324 58.088752 0.000000
47.205324 58.911930 0.000000
POLYGONS 1600 6400
3 0 4 119
3 119 4 120
3 119 120 118
3 118 120 121
3 118 121 117
3 117 121 122
3 117 122 116
3 116 122 123
3 116 123 115
3 115 123 124
3 115 124 114
3 114 124 125
3 114 125 113
3 113 125 126
3 113 126 112
3 112 126 127
3 112 127 111
3 111 127 128
3 111 128 110
3 110 128 129
3 110 129 109
3 109 129 130
3 109 130 108
3 108 130 131
3 108 131 107
3 107 131 132
3 107 132 106
3 106 132 133
3 106 133 105
3 105 133 134
3 105 134 104
3 104 134 135
3 104 135 103
3 103 135 136
3 103 136 102
3 102 136 137
3 102 137 101
3 101 137 138
3 101 138 3
3 3 138 100
3 4 5 120
3 120 5 139
3 120 139 121
3 121 139 140
3 121 140 122
3 122 140 141
3 122 141 123
3 123 141 142
3 123 142 124
3 124 142 143
3 124 143 125
3 125 143 144
3 125 144 126
3 126 144 145
3 126 145 127
3 127 145 146
3 127 146 128
3 128 146 147
3 128 147 129
3 129 147 148
3 129 148 130
3 130 148 149
3 130 149 131
3 131 149 150
3 131 150 132
3 132 150 151
3 132 151 133
3 133 151 152
3 133 152 134
3 134 152 153
3 134 153 135
3 135 153 154
3 135 154 136
3 136 154 155
3 136 155 137
3 137 155 156
3 137 156 138
3 138 156 157
3 138 157 100
3 100 157 99
3 5 6 139
3 139 6 158
3 139 158 140
3 140 158 159
3 140 159 141
3 141 159 160
3 141 160 142
3 142 160 161
3 142 161 143
3 143 161 162
3 143 162 144
3 144 162 163
3 144 163 145
3 145 163 164
3 145 164 146
3 146 164 165
3 146 165 147
3 147 165 166
3 147 166 148
3 148 166 167
3 148 167 149
3 149 167 168
3 149 168 150
3 150 168 169
3 150 169 151
3 151 169 170
3 151 170 152
3 152 170 171
3 152 171 153
3 153 171 172
3 153 172 154
3 154 172 173
3 154 173 155
3 155 173 174
3 155 174 156
3 156 174 175
3 156 175 157
3 157 175 176
3 157 176 99
3 99 176 98
3 6 7 158
3 158 7 177
3 158 177 159
3 159 177 178
3 159 178 160
3 160 178 179
3 160 179 161
3 161 179 180
3 161 180 162
3 162 180 181
3 162 181 163
3 163 181 182
3 163 182 164
3 164 182 183
3 164 183 165
3 165 183 184
3 165 184 166
3 166 184 185
3 166 185 167
3 167 185 186
3 167 186 168
3 168 186 187
3 168 187 169
3 169 187 188
3 169 188 170
3 170 188 189
3 170 189 171
3 171 189 190
3 171 190 172
3 172 190 191
3 172 191 173
3 173 191 192
3 173 192 174
3 174 192 193
3 174 193 175
3 175 193 194
3 175 194 176
3 176 194 195
3 176 195 98
3 98 195 97
3 7 8 177
3 177 8 196
3 177 196 178
3 178 196 197
3 178 197 179
3 179 197 198
3 179 198 180
3 180 198 199
3 180 199 181
3 181 199 200
3 181 200 182
3 182 200 201
3 182 201 183
3 183 201 202
3 183 202 184
3 184 202 203
3 184 203 185
3 185 203 204
3 185 204 186
3 186 204 205
3 186 205 187
3 187 205 206
3 187 206 188
3 188 206 207
3 188 207 189
3 189 207 208
3 189 208 190
3 190 208 209
3 190 209 191
3 191 209 210
3 191 210 192
3 192 210 211
3 192 211 193
3 193 211 212
3 193 212 194
3 194 212 213
3 194 213 195
3 195 213 214
3 195 214 97
3 97 214 96
3 8 9 196
3 196 9 215
3 196 215 197
3 197 215 216
3 197 216 198
3 198 216 217
3 198 217 199
3 199 217 218
3 199 218 200
3 200 218 219
3 200 219 201
3 201 219 220
3 201 220 202
3 202 220 221
3 202 221 203
3 203 221 222
3 203 222 204
3 204 222 223
3 204 223 205
3 205 223 224
3 205 224 206
3 206 224 225
3 206 225 207
3 207 225 226
3 207 226 208
3 208 226 227
3 208 227 209
3 209 227 228
3 209 228 210
3 210 228 229
3 210 229 211
3 211 229 230
3 211 230 212
3 212 230 231
3 212 231 213
3 213 231 232
3 213 232 214
3 214 232 233
3 214 233 96
3 96 233 95
3 9 10 215
3 215 10 234
3 215 234 216
3 216 234 235
3 216 235 217
3 217 235 236
3 217 236 218
3 218 236 237
3 218 237 219
3 219 237 238
3 219 238 220
3 220 238 239
3 220 239 221
3 221 239 240
3 221 240 222
3 222 240 241
3 222 241 223
3 223 241 242
3 223 242 224
3 224 242 243
3 224 243 225
3 225 243 244
3 225 244 226
3 226 244 245
3 226 245 227
3 227 245 246
3 227 246 228
3 228 246 247
3 228 247 229
3 229 247 248
3 229 248 230
3 230 248 249
3 230 249 231
3 231 249 250
3 231 250 232
3 232 250 251
3 232 251 233
3 233 251 252
3 233 252 95
3 95 252 94
3 10 11 234
3 234 11 253
3 234 253 235
3 235 253 254
3 235 254 236
3 236 254 255
3 236 255 237
3 237 255 256
3 237 256 238
3 238 256 257
3 238 257 239
3 239 257 258
3 239 258 240
3 240 258 259
3 240 259 241
3 241 259 260
3 241 260 242
3 242 260 261
3 242 261 243
3 243 261 262
3 243 262 244
3 244 262 263
3 244 263 245
3 245 263 264
3 245 264 246
3 246 264 265
3 246 265 247
3 247 265 266
3 247 266 248
3 248 266 267
3 248 267 249
3 249 267 268
3 249 268 250
3 250 268 269
3 250 269 251
3 251 269 270
3 251 270 252
3 252 270 271
3 252 271 94
3 94 271 93
3 11 12 253
3 253 12 272
3 253 272 254
3 254 272 273
3 254 273 255
3 255 273 274
3 255 274 256
3 256 274 275
3 256 275 257
3 257 275 276
3 257 276 258
3 258 276 277
3 258 277 259
3 259 277 278
3 259 278 260
3 260 278 279
3 260 279 261
3 261 279 280
3 261 280 262
3 262 280 281
3 262 281 263
3 263 281 282
3 263 282 264
3 264 282 283
3 264 283 265
3 265 283 284
3 265 284 266
3 266 284 285
3 266 285 267
3 267 285 286
3 267 286 268
3 268 286 287
3 268 287 269
3 269 287 288
3 269 288 270
3 270 288 289
3 270 289 271
3 271 289 290
3 271 290 93
3 93 290 92
3 12 13 272
3 272 13 291
3 272 291 273
3 273 291 292
3 273 292 274
3 274 292 293
3 274 293 275
3 275 293 294
3 275 294 276
3 276 294 295
3 276 295 277
3 277 295 296
3 277 296 278
3 278 296 297
3 278 297 279
3 279 297 298
3 279 298 280
3 280 298 299
3 280 299 281
3 281 299 300
3 281 300 282
3 282 300 301
3 282 301 283
3 283 301 302
3 283 302 284
3 284 302 303
3 284 303 285
3 285 303 304
3 285 304 286
3 286 304 305
3 286 305 287
3 287 305 306
3 287 306 288
3 288 306 307
3 288 307 289
3 289 307 308
3 289 308 290
3 290 308 309
3 290 309 92
3 92 309 91
3 13 14 291
3 291 14 310
3 291 310 292
3 292 310 311
3 292 311 293
3 293 311 312
3 293 312 294
3 294 312 313
3 294 313 295
3 295 313 314
3 295 314 296
3 296 314 315
3 296 315 297
3 297 315 316
3 297 316 298
3 298 316 317
3 298 317 299
3 299 317 318
3 299 318 300
3 300 318 319
3 300 319 301
3 301 319 320
3 301 320 302
3 302 320 321
3 302 321 303
3 303 321 322
3 303 322 304
3 304 322 323
3 304 323 305
3 305 323 324
3 305 324 306
3 306 324 325
3 306 325 307
3 307 325 326
3 307 326 308
3 308 326 327
3 308 327 309
3 309 327 328
3 309 328 91
3 91 328 90
3 14 15 310
3 310 15 329
3 310 329 311
3 311 329 330
3 311 330 312
3 312 330 331
3 312 331 313
3 313 331 332
3 313 332 314
3 314 332 333
3 314 333 315
3 315 333 334
3 315 334 316
3 316 334 335
3 316 335 317
3 317 335 336
3 317 336 318
3 318 336 337
3 318 337 319
3 319 337 338
3 319 338 320
3 320 338 339
3 320 339 321
3 321 339 340
3 321 340 322
3 322 340 341
3 322 341 323
3 323 341 342
3 323 342 324
3 324 342 343
3 324 343 325
3 325 343 344
3 325 344 326
3 326 344 345
3 326 345 327
3 327 345 346
3 327 346 328
3 328 346 347
3 328 347 90
3 90 347 89
3 15 16 329
3 329 16 348
3 329 348 330
3 330 348 349
3 330 349 331
3 331 349 350
3 331 350 332
3 332 350 351
3 332 351 333
3 333 351 352
3 333 352 334
3 334 352 353
3 334 353 335
3 335 353 354
3 335 354 336
3 336 354 355
3 336 355 337
3 337 355 356
3 337 356 338
3 338 356 357
3 338 357 339
3 339 357 358
3 339 358 340
3 340 358 359
3 340 359 341
3 341 359 360
3 341 360 342
3 342 360 361
3 342 361 343
3 343 361 362
3 343 362 344
3 344 362 363
3 344 363 345
3 345 363 364
3 345 364 346
3 346 364 365
3 346 365 347
3 347 365 366
3 347 366 89
3 89 366 88
3 16 17 348
3 348 17 367
3 348 367 349
3 349 367 368
3 349 368 350
3 350 368 369
3 350 369 351
3 351 369 370
3 351 370 352
3 352 370 371
3 352 371 353
3 353 371 372
3 353 372 354
3 354 372 373
3 354 373 355
3 355 373 374
3 355 374 356
3 356 374 375
3 356 375 357
3 357 375 376
3 357 376 358
3 358 376 377
3 358 377 359
3 359 377 378
3 359 378 360
3 360 378 379
3 360 379 361
3 361 379 380
3 361 380 362
3 362 380 381
3 362 381 363
3 363 381 382
3 363 382 364
3 364 382 383
3 364 383 365
3 365 383 384
3 365 384 366
3 366 384 385
3 366 385 88
3 88 385 87
3 17 18 367
3 367 18 386
3 367 386 368
3 368 386 387
3 368 387 369
3 369 387 388
3 369 388 370
3 370 388 389
3 370 389 371
3 371 389 390
3 371 390 372
3 372 390 391
3 372 391 373
3 373 391 392
3 373 392 374
3 374 392 393
3 374 393 375
3 375 393 394
3 375 394 376
3 376 394 395
3 376 395 377
3 377 395 396
3 377 396 378
3 378 396 397
3 378 397 379
3 379 397 398
3 379 398 380
3 380 398 399
3 380 399 381
3 381 399 400
3 381 400 382
3 382 400 401
3 382 401 383
3 383 401 402
3 383 402 384
3 384 402 403
3 384 403 385
3 385 403 404
3 385 404 87
3 87 404 86
3 18 19 386
3 386 19 405
3 386 405 387
3 387 405 406
3 387 406 388
3 388 406 407
3 388 407 389
3 389 407 408
3 389 408 390
3 390 408 409
3 390 409 391
3 391 409 410
3 391 410 392
3 392 410 411
3 392 411 393
3 393 411 412
3 393 412 394
3 394 412 413
3 394 413 395
3 395 413 414
3 395 414 396
3 396 414 415
3 396 415 397
3 397 415 416
3 397 416 398
3 398 416 417
3 398 417 399
3 399 417 418
3 399 418 400
3 400 418 419
3 400 419 401
3 401 419 420
3 401 420 402
3 402 420 421
3 402 421 403
3 403 421 422
3 403 422 404
3 404 422 423
3 404 423 86
3 86 423 85
3 19 20 405
3 405 20 424
3 405 424 406
3 406 424 425
3 406 425 407
3 407 425 426
3 407 426 408
3 408 426 427
3 408 427 409
3 409 427 428
3 409 428 410
3 410 428 429
3 410 429 411
3 411 429 430
3 411 430 412
3 412 430 431
3 412 431 413
3 413 431 432
3 413 432 414
3 414 432 433
3 414 433 415
3 415 433 434
3 415 434 416
3 416 434 435
3 416 435 417
3 417 435 436
3 417 436 418
3 418 436 437
3 418 437 419
3 419 437 438
3 419 438 420
3 420 438 439
3 420 439 421
3 421 439 440
3 421 440 422
3 422 440 441
3 422 441 423
3 423 441 442
3 423 442 85
3 85 442 84
3 20 21 424
3 424 21 443
3 424 443 425
3 425 443 444
3 425 444 426
3 426 444 445
3 426 445 427
3 427 445 446
3 427 446 428
3 428 446 447
3 428 447 429
3 429 447 448
3 429 448 430
3 430 448 449
3 430 449 431
3 431 449 450
3 431 450 432
3 432 450 451
3 432 451 433
3 433 451 452
3 433 452 434
3 434 452 453
3 434 453 435
3 435 453 454
3 435 454 436
3 436 454 455
3 436 455 437
3 437 455 456
3 437 456 438
3 438 456 457
3 438 457 439
3 439 457 458
3 439 458 440
3 440 458 459
3 440 459 441
3 441 459 460
3 441 460 442
3 442 460 461
3 442 461 84
3 84 461 83
3 21 22 443
3 443 22 462
3 443 462 444
3 444 462 463
3 444 463 445
3 445 463 464
3 445 464 446
3 446 464 465
3 446 465 447
3 447 465 466
3 447 466 448
3 448 466 467
3 448 467 449
3 449 467 468
3 449 468 450
3 450 468 469
3 450 469 451
3 451 469 470
3 451 470 452
3 452 470 471
3 452 471 453
3 453 471 472
3 453 472 454
3 454 472 473
3 454 473 455
3 455 473 474
3 455 474 456
3 456 474 475
3 456 475 457
3 457 475 476
3 457 476 458
3 458 476 477
3 458 477 459
3 459 477 478
3 459 478 460
3 460 478 479
3 460 479 461
3 461 479 480
3 461 480 83
3 83 480 82
3 22 23 462
3 462 23 481
3 462 481 463
3 463 481 482
3 463 482 464
3 464 482 483
3 464 483 465
3 465 483 484
3 465 484 466
3 466 484 485
3 466 485 467
3 467 485 486
3 467 486 468
3 468 486 487
3 468 487 469
3 469 487 488
3 469 488 470
3 470 488 489
3 470 489 471
3 471 489 490
3 471 490 472
3 472 490 491
3 472 491 473
3 473 491 492
3 473 492 474
3 474 492 493
3 474 493 475
3 475 493 494
3 475 494 476
3 476 494 495
3 476 495 477
3 477 495 496
3 477 496 478
3 478 496 497
3 478 497 479
3 479 497 498
3 479 498 480
3 480 498 499
3 480 499 82
3 82 499 81
3 23 24 481
3 481 24 500
3 481 500 482
3 482 500 501
3 482 501 483
3 483 501 502
3 483 502 484
3 484 502 503
3 484 503 485
3 485 503 504
3 485 504 486
3 486 504 505
3 486 505 487
3 487 505 506
3 487 506 488
3 488 506 507
3 488 507 489
3 489 507 508
3 489 508 490
3 490 508 509
3 490 509 491
3 491 509 510
3 491 510 492
3 492 510 511
3 492 511 493
3 493 511 512
3 493 512 494
3 494 512 513
3 494 513 495
3 495 513 514
3 495 514 496
3 496 514 515
3 496 515 497
3 497 515 516
3 497 516 498
3 498 516 517
3 498 517 499
3 499 517 518
3 499 518 81
3 81 518 80
3 24 25 500
3 500 25 519
3 500 519 501
3 501 519 520
3 501 520 502
3 502 520 521
3 502 521 503
3 503 521 522
3 503 522 504
3 504 522 523
3 504 523 505
3 505 523 524
3 505 524 506
3 506 524 525
3 506 525 507
3 507 525 526
3 507 526 508
3 508 526 527
3 508 527 509
3 509 527 528
3 509 528 510
3 510 528 529
3 510 529 511
3 511 529 530
3 511 530 512
3 512 530 531
3 512 531 513
3 513 531 532
3 513 532 514
3 514 532 533
3 514 533 515
3 515 533 534
3 515 534 516
3 516 534 535
3 516 535 517
3 517 535 536
3 517 536 518
3 518 536 537
3 518 537 80
3 80 537 79
3 25 26 519
3 519 26 538
3 519 538 520
3 520 538 539
3 520 539 521
3 521 539 540
3 521 540 522
3 522 540 541
3 522 541 523
3 523 541 542
3 523 542 524
3 524 542 543
3 524 543 525
3 525 543 544
3 525 544 526
3 526 544 545
3 526 545 527
3 527 545 546
3 527 546 528
3 528 546 547
3 528 547 529
3 529 547 548
3 529 548 530
3 530 548 549
3 530 549 531
3 531 549 550
3 531 550 532
3 532 550 551
3 532 551 533
3 533 551 552
3 533 552 534
3 534 552 553
3 534 553 535
3 535 553 554
3 535 554 536
3 536 554 555
3 536 555 537
3 537 555 556
3 537 556 79
3 79 556 78
3 26 27 538
3 538 27 557
3 538 557 539
3 539 557 558
3 539 558 540
3 540 558 559
3 540 559 541
3 541 559 560
3 541 560 542
3 542 560 561
3 542 561 543
3 543 561 562
3 543 562 544
3 544 562 563
3 544 563 545
3 545 563 564
3 545 564 546
3 546 564 565
3 546 565 547
3 547 565 566
3 547 566 548
3 548 566 567
3 548 567 549
3 549 567 568
3 549 568 550
3 550 568 569
3 550 569 551
3 551 569 570
3 551 570 552
3 552 570 571
3 552 571 553
3 553 571 572
3 553 572 554
3 554 572 573
3 554 573 555
3 555 573 574
3 555 574 556
3 556 574 575
3 556 575 78
3 78 575 77
3 27 28 557
3 557 28 576
3 557 576 558
3 558 576 577
3 558 577 559
3 559 577 578
3 559 578 560
3 560 578 579
3 560 579 561
3 561 579 580
3 561 580 562
3 562 580 581
3 562 581 563
3 563 581 582
3 563 582 564
3 564 582 583
3 564 583 565
3 565 583 584
3 565 584 566
3 566 584 585
3 566 585 567
3 567 585 586
3 567 586 568
3 568 586 587
3 568 587 569
3 569 587 588
3 569 588 570
3 570 588 589
3 570 589 571
3 571 589 590
3 571 590 572
3 572 590 591
3 572 591 573
3 573 591 592
3 573 592 574
3 574 592 593
3 574 593 575
3 575 593 594
3 575 594 77
3 77 594 76
3 28 29 576
3 576 29 595
3 576 595 577
3 577 595 596
3 577 596 578
3 578 596 597
3 578 597 579
3 579 597 598
3 579 598 580
3 580 598 599
3 580 599 581
3 581 599 600
3 581 600 582
3 582 600 601
3 582 601 583
3 583 601 602
3 583 602 584
3 584 602 603
3 584 603 585
3 585 603 604
3 585 604 586
3 586 604 605
3 586 605 587
3 587 605 606
3 587 606 588
3 588 606 607
3 588 607 589
3 589 607 608
3 589 608 590
3 590 608 609
3 590 609 591
3 591 609 610
3 591 610 592
3 592 610 611
3 592 611 593
3 593 611 612
3 593 612 594
3 594 612 613
3 594 613 76
3 76 613 75
3 29 30 595
3 595 30 614
3 595 614 596
3 596 614 615
3 596 615 597
3 597 615 616
3 597 616 598
3 598 616 617
3 598 617 599
3 599 617 618
3 599 618 600
3 600 618 619
3 600 619 601
3 601 619 620
3 601 620 602
3 602 620 621
3 602 621 603
3 603 621 622
3 603 622 604
3 604 622 623
3 604 623 605
3 605 623 624
3 605 624 606
3 606 624 625
3 606 625 607
3 607 625 626
3 607 626 608
3 608 626 627
3 608 627 609
3 609 627 628
3 609 628 610
3 610 628 629
3 610 629 611
3 611 629 630
3 611 630 612
3 612 630 631
3 612 631 613
3 613 631 632
3 613 632 75
3 75 632 74
3 30 31 614
3 614 31 633
3 614 633 615
3 615 633 634
3 615 634 616
3 616 634 635
3 616 635 617
3 617 635 636
3 617 636 618
3 618 636 637
3 618 637 619
3 619 637 638
3 619 638 620
3 620 638 639
3 620 639 621
3 621 639 640
3 621 640 622
3 622 640 641
3 622 641 623
3 623 641 642
3 623 642 624
3 624 642 643
3 624 643 625
3 625 643 644
3 625 644 626
3 626 644 645
3 626 645 627
3 627 645 646
3 627 646 628
3 628 646 647
3 628 647 629
3 629 647 648
3 629 648 630
3 630 648 649
3 630 649 631
3 631 649 650
3 631 650 632
3 632 650 651
3 632 651 74
3 74 651 73
3 31 32 633
3 633 32 652
3 633 652 634
3 634 652 653
3 634 653 635
3 635 653 654
3 635 654 636
3 636 654 655
3 636 655 637
3 637 655 656
3 637 656 638
3 638 656 657
3 638 657 639
3 639 657 658
3 639 658 640
3 640 658 659
3 640 659 641
3 641 659 660
3 641 660 642
3 642 660 661
3 642 661 643
3 643 661 662
3 643 662 644
3 644 662 663
3 644 663 645
3 645 663 664
3 645 664 646
3 646 664 665
3 646 665 647
3 647 665 666
3 647 666 648
3 648 666 667
3 648 667 649
3 649 667 668
3 649 668 650
3 650 668 669
3 650 669 651
3 651 669 670
3 651 670 73
3 73 670 72
3 32 33 652
3 652 33 671
3 652 671 653
3 653 671 672
3 653 672 654
3 654 672 673
3 654 673 655
3 655 673 674
3 655 674 656
3 656 674 675
3 656 675 657
3 657 675 676
3 657 676 658
3 658 676 677
3 658 677 659
3 659 677 678
3 659 678 660
3 660 678 679
3 660 679 661
3 661 679 680
3 661 680 662
3 662 680 681
3 662 681 663
3 663 681 682
3 663 682 664
3 664 682 683
3 664 683 665
3 665 683 684
3 665 684 666
3 666 684 685
3 666 685 667
3 667 685 686
3 667 686 668
3 668 686 687
3 668 687 669
3 669 687 688
3 669 688 670
3 670 688 689
3 670 689 72
3 72 689 71
3 33 34 671
3 671 34 690
3 671 690 672
3 672 690 691
3 672 691 673
3 673 691 692
3 673 692 674
3 674 692 693
3 674 693 675
3 675 693 694
3 675 694 676
3 676 694 695
3 676 695 677
3 677 695 696
3 677 696 678
3 678 696 697
3 678 697 679
3 679 697 698
3 679 698 680
3 680 698 699
3 680 699 681
3 681 699 700
3 681 700 682
3 682 700 701
3 682 701 683
3 683 701 702
3 683 702 684
3 684 702 703
3 684 703 685
3 685 703 704
3 685 704 686
3 686 704 705
3 686 705 687
3 687 705 706
3 687 706 688
3 688 706 707
3 688 707 689
3 689 707 708
3 689 708 71
3 71 708 70
3 34 35 690
3 690 35 709
3 690 709 691
3 691 709 710
3 691 710 692
3 692 710 711
3 692 711 693
3 693 711 712
3 693 712 694
3 694 712 713
3 694 713 695
3 695 713 714
3 695 714 696
3 696 714 715
3 696 715 697
3 697 715 716
3 697 716 698
3 698 716 717
3 698 717 699
3 699 717 718
3 699 718 700
3 700 718 719
3 700 719 701
3 701 719 720
3 701 720 702
3 702 720 721
3 702 721 703
3 703 721 722
3 703 722 704
3 704 722 723
3 704 723 705
3 705 723 724
3 705 724 706
3 706 724 725
3 706 725 707
3 707 725 726
3 707 726 708
3 708 726 727
3 708 727 70
3 70 727 69
3 35 36 709
3 709 36 728
3 709 728 710
3 710 728 729
3 710 729 711
3 711 729 730
3 711 730 712
3 712 730 731
3 712 731 713
3 713 731 732
3 713 732 714
3 714 732 733
3 714 733 715
3 715 733 734
3 715 734 716
3 716 734 735
3 716 735 717
3 717 735 736
3 717 736 718
3 718 736 737
3 718 737 719
3 719 737 738
3 719 738 720
3 720 738 739
3 720 739 721
3 721 739 740
3 721 740 722
3 722 740 741
3 722 741 723
3 723 741 742
3 723 742 724
3 724 742 743
3 724 743 725
3 725 743 744
3 725 744 726
3 726 744 745
3 726 745 727
3 727 745 746
3 727 746 69
3 69 746 68
3 36 37 728
3 728 37 747
3 728 747 729
3 729 747 748
3 729 748 730
3 730 748 749
3 730 749 731
3 731 749 750
3 731 750 732
3 732 750 751
3 732 751 733
3 733 751 752
3 733 752 734
3 734 752 753
3 734 753 735
3 735 753 754
3 735 754 736
3 736 754 755
3 736 755 737
3 737 755 756
3 737 756 738
3 738 756 757
3 738 757 739
3 739 757 758
3 739 758 740
3 740 758 759
3 740 759 741
3 741 759 760
3 741 760 742
3 742 760 761
3 742 761 743
3 743 761 762
3 743 762 744
3 744 762 763
3 744 763 745
3 745 763 764
3 745 764 746
3 746 764 765
3 746 765 68
3 68 765 67
3 37 38 747
3 747 38 766
3 747 766 748
3 748 766 767
3 748 767 749
3 749 767 768
3 749 768 750
3 750 768 769
3 750 769 751
3 751 769 770
3 751 770 752
3 752 770 771
3 752 771 753
3 753 771 772
3 753 772 754
3 754 772 773
3 754 773 755
3 755 773 774
3 755 774 756
3 756 774 775
3 756 775 757
3 757 775 776
3 757 776 758
3 758 776 777
3 758 777 759
3 759 777 778
3 759 778 760
3 760 778 779
3 760 779 761
3 761 779 780
3 761 780 762
3 762 780 781
3 762 781 763
3 763 781 782
3 763 782 764
3 764 782 783
3 764 783 765
3 765 783 784
3 765 784 67
3 67 784 66
3 38 39 766
3 766 39 785
3 766 785 767
3 767 785 786
3 767 786 768
3 768 786 787
3 768 787 769
3 769 787 788
3 769 788 770
3 770 788 789
3 770 789 771
3 771 789 790
3 771 790 772
3 772 790 791
3 772 791 773
3 773 791 792
3 773 792 774
3 774 792 793
3 774 793 775
3 775 793 794
3 775 794 776
3 776 794 795
3 776 795 777
3 777 795 796
3 777 796 778
3 778 796 797
3 778 797 779
3 779 797 798
3 779 798 780
3 780 798 799
3 780 799 781
3 781 799 800
3 781 800 782
3 782 800 801
3 782 801 783
3 783 801 802
3 783 802 784
3 784 802 803
3 784 803 66
3 66 803 65
3 39 40 785
3 785 40 804
3 785 804 786
3 786 804 805
3 786 805 787
3 787 805 806
3 787 806 788
3 788 806 807
3 788 807 789
3 789 807 808
3 789 808 790
3 790 808 809
3 790 809 791
3 791 809 810
3 791 810 792
3 792 810 811
3 792 811 793
3 793 811 812
3 793 812 794
3 794 812 813
3 794 813 795
3 795 813 814
3 795 814 796
3 796 814 815
3 796 815 797
3 797 815 816
3 797 816 798
3 798 816 817
3 798 817 799
3 799 817 818
3 799 818 800
3 800 818 819
3 800 819 801
3 801 819 820
3 801 820 802
3 802 820 821
3 802 821 803
3 803 821 822
3 803 822 65
3 65 822 64
3 40 41 804
3 804 41 823
3 804 823 805
3 805 823 824
3 805 824 806
3 806 824 825
3 806 825 807
3 807 825 826
3 807 826 808
3 808 826 827
3 808 827 809
3 809 827 828
3 809 828 810
3 810 828 829
3 810 829 811
3 811 829 830
3 811 830 812
3 812 830 831
3 812 831 813
3 813 831 832
3 813 832 814
3 814 832 833
3 814 833 815
3 815 833 834
3 815 834 816
3 816 834 835
3 816 835 817
3 817 835 836
3 817 836 818
3 818 836 837
3 818 837 819
3 819 837 838
3 819 838 820
3 820 838 839
3 820 839 821
3 821 839 840
3 821 840 822
3 822 840 841
3 822 841 64
3 64 841 63
3 41 42 823
3 823 42 842
3 823 842 824
3 824 842 843
3 824 843 825
3 825 843 844
3 825 844 826
3 826 844 845
3 826 845 827
3 827 845 846
3 827 846 828
3 828 846 847
3 828 847 829
3 829 847 848
3 829 848 830
3 830 848 849
3 830 849 831
3 831 849 850
3 831 850 832
3 832 850 851
3 832 851 833
3 833 851 852
3 833 852 834
3 834 852 853
3 834 853 835
3 835 853 854
3 835 854 836
3 836 854 855
3 836 855 837
3 837 855 856
3 837 856 838
3 838 856 857
3 838 857 839
3 839 857 858
3 839 858 840
3 840 858 859
3 840 859 841
3 841 859 860
3 841 860 63
3 63 860 62
3 42 1 842
3 842 1 43
3 842 43 843
3 843 43 44
3 843 44 844
3 844 44 45
3 844 45 845
3 845 45 46
3 845 46 846
3 846 46 47
3 846 47 847
3 847 47 48
3 847 48 848
3 848 48 49
3 848 49 849
3 849 49 50
3 849 50 850
3 850 50 51
3 850 51 851
3 851 51 52
3 851 52 852
3 852 52 53
3 852 53 853
3 853 53 54
3 853 54 854
3 854 54 55
3 854 55 855
3 855 55 56
3 855 56 856
3 856 56 57
3 856 57 857
3 857 57 58
3 857 58 858
3 858 58 59
3 858 59 859
3 859 59 60
3 859 60 860
3 860 60 61
3 860 61 62
3 62 61 2
POINT_DATA 861
VECTORS U float
0.000001 -0.000000 0.000000
-1.819136 6.655302 0.000000
-5.582924 6.691634 0.000000
-0.000063 0.000049 0.000000
0.000689 0.110065 0.000000
0.002876 0.216470 0.000000
0.007577 0.312106 0.000000
0.012840 0.400156 0.000000
0.019514 0.484550 0.000000
0.032203 0.565031 0.000000
0.051987 0.644449 0.000000
0.078191 0.725305 0.000000
0.108999 0.810358 0.000000
0.143085 0.901425 0.000000
0.178933 1.000425 0.000000
0.213963 1.108022 0.000000
0.246524 1.225883 0.000000
0.275407 1.353883 0.000000
0.298573 1.492347 0.000000
0.315475 1.641154 0.000000
0.324465 1.799422 0.000000
0.325226 1.966465 0.000000
0.317103 2.142352 0.000000
0.300022 2.325922 0.000000
0.273382 2.516666 0.000000
0.237446 2.713738 0.000000
0.192053 2.916404 0.000000
0.137426 3.124113 0.000000
0.073612 3.335985 0.000000
0.001030 3.551437 0.000000
-0.080041 3.770190 0.000000
-0.169601 3.991750 0.000000
-0.267214 4.215293 0.000000
-0.372463 4.440448 0.000000
-0.485420 4.666909 0.000000
-0.605677 4.894210 0.000000
-0.733214 5.121567 0.000000
-0.867601 5.348443 0.000000
-1.008561 5.573813 0.000000
-1.156466 5.797845 0.000000
-1.310819 6.019155 0.000000
-1.471133 6.236880 0.000000
-1.640268 6.449119 0.000000
-1.982068 6.645254 0.000000
-2.136010 6.643074 0.000000
-2.285795 6.644809 0.000000
-2.436035 6.649198 0.000000
-2.587928 6.656290 0.000000
-2.742113 6.665702 0.000000
-2.899076 6.676490 0.000000
-3.059668 6.687879 0.000000
-3.225007 6.699551 0.000000
-3.394686 6.711324 0.000000
-3.569512 6.723051 0.000000
-3.751050 6.733970 0.000000
-3.939347 6.743308 0.000000
-4.133811 6.750852 0.000000
-4.337300 6.755703 0.000000
-4.550184 6.758527 0.000000
-4.775934 6.757949 0.000000
-5.017160 6.751993 0.000000
-5.280174 6.734550 0.000000
-5.403014 6.398614 0.000000
-5.243791 6.140930 0.000000
-5.094362 5.900657 0.000000
-4.951335 5.669891 0.000000
-4.813182 5.444361 0.000000
-4.678461 5.223436 0.000000
-4.544847 5.005556 0.000000
-4.411765 4.791048 0.000000
-4.278957 4.579266 0.000000
-4.146031 4.369255 0.000000
-4.012808 4.161562 0.000000
-3.878736 3.956606 0.000000
-3.743468 3.753825 0.000000
-3.607449 3.553715 0.000000
-3.470573 3.357544 0.000000
-3.332502 3.164337 0.000000
-3.193924 2.974475 0.000000
-3.054858 2.789194 0.000000
-2.914964 2.608151 0.000000
-2.774948 2.431453 0.000000
-2.634958 2.259841 0.000000
-2.494814 2.093729 0.000000
-2.354785 1.932743 0.000000
-2.215195 1.777348 0.000000
-2.076031 1.628466 0.000000
-1.937229 1.485577 0.000000
-1.799027 1.348750 0.000000
-1.661242 1.218254 0.000000
-1.523993 1.094844 0.000000
-1.386852 0.977643 0.000000
-1.250050 0.866848 0.000000
-1.112177 0.766553 0.000000
-0.973267 0.669567 0.000000
-0.833044 0.579617 0.000000
-0.685121 0.504907 0.000000
-0.528881 0.431186 0.000000
-0.351170 0.360777 0.000000
-0.160069 0.253294 0.000000
-0.032289 0.119488 0.000000
0.000005 0.000005 0.000000
0.000016 0.000001 0.000000
0.000012 0.000004 0.000000
0.000008 0.000005 0.000000
0.000008 0.000001 0.000000
0.000007 -0.000002 0.000000
0.000002 -0.000003 0.000000
-0.000001 -0.000001 0.000000
0.000001 0.000001 0.000000
0.000001 -0.000000 0.000000
0.000001 -0.000000 0.000000
0.000001 0.000002 0.000000
0.000001 0.000003 0.000000
0.000001 0.000000 0.000000
0.000002 -0.000000 0.000000
0.000002 0.000001 0.000000
0.000001 0.000001 0.000000
-0.000000 -0.000000 0.000000
0.000000 -0.000000 0.000000
0.000757 0.108438 0.000000
0.001004 0.106181 0.000000
0.001392 0.103025 0.000000
0.002087 0.098735 0.000000
0.003002 0.092560 0.000000
0.003626 0.084161 0.000000
0.004285 0.073974 0.000000
0.005364 0.062171 0.000000
0.006132 0.048594 0.000000
0.005710 0.034184 0.000000
0.005157 0.020425 0.000000
0.005408 0.007195 0.000000
0.005341 -0.005737 0.000000
0.003937 -0.016975 0.000000
0.001032 -0.022911 0.000000
-0.004268 -0.018172 0.000000
-0.010628 0.000242 0.000000
-0.014669 0.026068 0.000000
-0.016623 0.060818 0.000000
0.003886 0.212274 0.000000
0.005209 0.206792 0.000000
0.006870 0.199915 0.000000
0.009862 0.190717 0.000000
0.013393 0.177470 0.000000
0.016397 0.159526 0.000000
0.018536 0.138415 0.000000
0.020426 0.116724 0.000000
0.021892 0.093827 0.000000
0.021822 0.068100 0.000000
0.020706 0.041961 0.000000
0.019262 0.019428 0.000000
0.017160 -0.000109 0.000000
0.010098 -0.015283 0.000000
-0.004512 -0.018045 0.000000
-0.023771 -0.002495 0.000000
-0.032443 0.021952 0.000000
-0.045969 0.054652 0.000000
-0.073715 0.120676 0.000000
0.009675 0.306858 0.000000
0.012451 0.300378 0.000000
0.017725 0.290539 0.000000
0.025035 0.275790 0.000000
0.032336 0.255892 0.000000
0.037652 0.231156 0.000000
0.040059 0.203230 0.000000
0.042792 0.173865 0.000000
0.045959 0.142758 0.000000
0.045651 0.110167 0.000000
0.040562 0.079672 0.000000
0.036245 0.053738 0.000000
0.028648 0.032383 0.000000
0.008763 0.020868 0.000000
-0.020915 0.021087 0.000000
-0.044050 0.031297 0.000000
-0.061573 0.057200 0.000000
-0.103407 0.114247 0.000000
-0.182605 0.207266 0.000000
0.016923 0.395452 0.000000
0.025091 0.386593 0.000000
0.036184 0.372239 0.000000
0.047636 0.352407 0.000000
0.057562 0.327422 0.000000
0.063878 0.297897 0.000000
0.068183 0.264184 0.000000
0.072187 0.228397 0.000000
0.073713 0.193435 0.000000
0.069486 0.159479 0.000000
0.060965 0.127004 0.000000
0.051743 0.100678 0.000000
0.031131 0.083250 0.000000
-0.000238 0.073487 0.000000
-0.037322 0.072793 0.000000
-0.066959 0.086172 0.000000
-0.118448 0.125800 0.000000
-0.187640 0.196516 0.000000
-0.323640 0.301039 0.000000
0.030425 0.478400 0.000000
0.045309 0.466843 0.000000
0.061301 0.449257 0.000000
0.076106 0.425671 0.000000
0.087313 0.396817 0.000000
0.095222 0.363279 0.000000
0.100747 0.326952 0.000000
0.102981 0.289886 0.000000
0.100489 0.253730 0.000000
0.092132 0.219451 0.000000
0.078596 0.188908 0.000000
0.057876 0.166181 0.000000
0.026602 0.151713 0.000000
-0.014959 0.144065 0.000000
-0.060230 0.148673 0.000000
-0.110640 0.172729 0.000000
-0.190975 0.218355 0.000000
-0.299189 0.297943 0.000000
-0.471473 0.398454 0.000000
0.050966 0.557988 0.000000
0.071801 0.544156 0.000000
0.091663 0.523861 0.000000
0.108190 0.497933 0.000000
0.120784 0.466646 0.000000
0.128956 0.431493 0.000000
0.133153 0.394735 0.000000
0.131981 0.357868 0.000000
0.124273 0.322878 0.000000
0.109808 0.291014 0.000000
0.088266 0.264414 0.000000
0.055290 0.244554 0.000000
0.014724 0.233790 0.000000
-0.037752 0.230236 0.000000
-0.096656 0.241110 0.000000
-0.174434 0.274994 0.000000
-0.281234 0.328439 0.000000
-0.421549 0.403406 0.000000
-0.608554 0.487074 0.000000
0.077910 0.636398 0.000000
0.103188 0.621282 0.000000
0.125172 0.599543 0.000000
0.142883 0.572123 0.000000
0.155342 0.540349 0.000000
0.162149 0.505437 0.000000
0.162968 0.469877 0.000000
0.156383 0.435290 0.000000
0.142891 0.402485 0.000000
0.120015 0.373881 0.000000
0.088709 0.351599 0.000000
0.045190 0.334741 0.000000
-0.006333 0.327238 0.000000
-0.071985 0.330960 0.000000
-0.151255 0.349994 0.000000
-0.252443 0.386779 0.000000
-0.382270 0.439459 0.000000
-0.543535 0.509863 0.000000
-0.744608 0.587832 0.000000
0.109243 0.717042 0.000000
0.137397 0.701304 0.000000
0.160524 0.678908 0.000000
0.177777 0.651502 0.000000
0.188574 0.620444 0.000000
0.191912 0.587613 0.000000
0.187581 0.554310 0.000000
0.175302 0.522366 0.000000
0.153464 0.493571 0.000000
0.121884 0.468681 0.000000
0.079987 0.449878 0.000000
0.026379 0.437950 0.000000
-0.039937 0.436037 0.000000
-0.120111 0.445223 0.000000
-0.219032 0.467930 0.000000
-0.339881 0.505573 0.000000
-0.490796 0.556634 0.000000
-0.667964 0.620351 0.000000
-0.877758 0.690122 0.000000
0.143663 0.801855 0.000000
0.173012 0.785964 0.000000
0.195519 0.764044 0.000000
0.210869 0.737738 0.000000
0.217736 0.708634 0.000000
0.216642 0.678289 0.000000
0.205994 0.648010 0.000000
0.186016 0.619980 0.000000
0.155642 0.594799 0.000000
0.114487 0.574341 0.000000
0.061203 0.560162 0.000000
-0.004403 0.553149 0.000000
-0.084374 0.555016 0.000000
-0.180697 0.568071 0.000000
-0.297352 0.593425 0.000000
-0.436290 0.631270 0.000000
-0.601558 0.677749 0.000000
-0.791451 0.734164 0.000000
-1.009668 0.797174 0.000000
0.179316 0.893278 0.000000
0.207871 0.877956 0.000000
0.228249 0.857312 0.000000
0.239722 0.832975 0.000000
0.241838 0.806229 0.000000
0.234438 0.779139 0.000000
0.216354 0.752631 0.000000
0.188218 0.728251 0.000000
0.148233 0.707492 0.000000
0.096604 0.691157 0.000000
0.032291 0.680798 0.000000
-0.046188 0.677968 0.000000
-0.140225 0.684126 0.000000
-0.252259 0.699646 0.000000
-0.384210 0.724621 0.000000
-0.537521 0.759853 0.000000
-0.715181 0.803603 0.000000
-0.915855 0.855837 0.000000
-1.141137 0.913589 0.000000
0.214174 0.992535 0.000000
0.240250 0.978394 0.000000
0.256762 0.959489 0.000000
0.263097 0.937464 0.000000
0.259006 0.913950 0.000000
0.244106 0.890212 0.000000
0.218307 0.867435 0.000000
0.180578 0.847075 0.000000
0.131258 0.830082 0.000000
0.068539 0.817841 0.000000
-0.007589 0.811674 0.000000
-0.099045 0.812200 0.000000
-0.206268 0.820432 0.000000
-0.331744 0.836937 0.000000
-0.477102 0.861275 0.000000
-0.643318 0.894218 0.000000
-0.831667 0.934033 0.000000
-1.041159 0.981514 0.000000
-1.272523 1.034803 0.000000
0.246451 1.101102 0.000000
0.268522 1.088253 0.000000
0.279550 1.071538 0.000000
0.279429 1.052273 0.000000
0.268157 1.031799 0.000000
0.245358 1.011414 0.000000
0.210540 0.992421 0.000000
0.163524 0.975782 0.000000
0.103548 0.962941 0.000000
0.030080 0.954297 0.000000
-0.057677 0.950932 0.000000
-0.160966 0.953571 0.000000
-0.281241 0.963219 0.000000
-0.418871 0.980209 0.000000
-0.576133 1.003948 0.000000
-0.752403 1.034402 0.000000
-0.950019 1.070616 0.000000
-1.167042 1.113421 0.000000
-1.404899 1.162512 0.000000
0.274796 1.219685 0.000000
0.290900 1.208597 0.000000
0.295450 1.193975 0.000000
0.288102 1.177316 0.000000
0.268786 1.159924 0.000000
0.237164 1.142975 0.000000
0.193222 1.127378 0.000000
0.136212 1.114169 0.000000
0.066040 1.104239 0.000000
-0.018211 1.098623 0.000000
-0.117317 1.098053 0.000000
-0.232104 1.102793 0.000000
-0.363477 1.112872 0.000000
-0.512256 1.129089 0.000000
-0.679549 1.151074 0.000000
-0.865182 1.179537 0.000000
-1.070587 1.213300 0.000000
-1.294552 1.252768 0.000000
-1.537849 1.297602 0.000000
0.297216 1.348677 0.000000
0.306752 1.338983 0.000000
0.303575 1.326535 0.000000
0.288190 1.312522 0.000000
0.260135 1.298019 0.000000
0.219648 1.284035 0.000000
0.166036 1.271564 0.000000
0.099328 1.261384 0.000000
0.018668 1.254362 0.000000
-0.076144 1.251066 0.000000
-0.185803 1.252094 0.000000
-0.311001 1.257852 0.000000
-0.452678 1.268469 0.000000
-0.611139 1.284186 0.000000
-0.787409 1.304669 0.000000
-0.981209 1.330473 0.000000
-1.193247 1.361100 0.000000
-1.423142 1.397026 0.000000
-1.671288 1.438229 0.000000
0.313343 1.487770 0.000000
0.314672 1.479634 0.000000
0.303436 1.469169 0.000000
0.279216 1.457489 0.000000
0.242319 1.445551 0.000000
0.192322 1.434366 0.000000
0.129237 1.424632 0.000000
0.052577 1.417064 0.000000
-0.037813 1.412208 0.000000
-0.142664 1.410582 0.000000
-0.262253 1.412797 0.000000
-0.397166 1.419250 0.000000
-0.548059 1.429888 0.000000
-0.715079 1.444918 0.000000
-0.899025 1.463876 0.000000
-1.099765 1.487207 0.000000
-1.317871 1.514862 0.000000
-1.553102 1.547415 0.000000
-1.805925 1.585148 0.000000
0.321546 1.637269 0.000000
0.314504 1.630355 0.000000
0.294288 1.621621 0.000000
0.261148 1.611970 0.000000
0.214872 1.602328 0.000000
0.155582 1.593303 0.000000
0.082982 1.585737 0.000000
-0.003190 1.580183 0.000000
-0.103148 1.577248 0.000000
-0.217370 1.577173 0.000000
-0.346198 1.580203 0.000000
-0.489890 1.586662 0.000000
-0.648955 1.596637 0.000000
-0.823510 1.610553 0.000000
-1.014258 1.628172 0.000000
-1.221077 1.649742 0.000000
-1.444494 1.674989 0.000000
-1.684529 1.704362 0.000000
-1.941238 1.738249 0.000000
0.321692 1.796106 0.000000
0.305479 1.790386 0.000000
0.276151 1.783129 0.000000
0.233647 1.775202 0.000000
0.178251 1.767360 0.000000
0.109536 1.760280 0.000000
0.027624 1.754517 0.000000
-0.067745 1.750504 0.000000
-0.176759 1.748771 0.000000
-0.299630 1.749574 0.000000
-0.436772 1.753197 0.000000
-0.588343 1.759805 0.000000
-0.754855 1.769389 0.000000
-0.936227 1.782228 0.000000
-1.133061 1.798188 0.000000
-1.345106 1.817575 0.000000
-1.573080 1.840386 0.000000
-1.817021 1.866821 0.000000
-2.077444 1.897409 0.000000
0.312927 1.963705 0.000000
0.287436 1.958938 0.000000
0.248719 1.952916 0.000000
0.196989 1.946420 0.000000
0.132215 1.940189 0.000000
0.054506 1.934599 0.000000
-0.036293 1.930179 0.000000
-0.140448 1.927327 0.000000
-0.257877 1.926483 0.000000
-0.389008 1.927904 0.000000
-0.533797 1.931796 0.000000
-0.692572 1.938340 0.000000
-0.865507 1.947428 0.000000
-1.052789 1.959235 0.000000
-1.254738 1.973621 0.000000
-1.471536 1.990971 0.000000
-1.703519 2.011355 0.000000
-1.950981 2.034989 0.000000
-2.214631 2.062295 0.000000
0.295204 2.139712 0.000000
0.260146 2.135605 0.000000
0.212046 2.130557 0.000000
0.151078 2.125191 0.000000
0.077403 2.119984 0.000000
-0.009155 2.115520 0.000000
-0.108567 2.112252 0.000000
-0.220908 2.110319 0.000000
-0.346295 2.110155 0.000000
-0.484816 2.111860 0.000000
-0.636635 2.115704 0.000000
-0.801777 2.121826 0.000000
-0.980570 2.130252 0.000000
-1.173001 2.141132 0.000000
-1.379543 2.154276 0.000000
-1.600322 2.169802 0.000000
-1.835683 2.187852 0.000000
-2.086214 2.208676 0.000000
-2.352347 2.232497 0.000000
0.268171 2.323400 0.000000
0.223603 2.319774 0.000000
0.166263 2.315336 0.000000
0.096400 2.310724 0.000000
0.013897 2.306394 0.000000
-0.081164 2.302715 0.000000
-0.188598 2.300090 0.000000
-0.308757 2.298773 0.000000
-0.441370 2.299062 0.000000
-0.586772 2.301037 0.000000
-0.744872 2.304876 0.000000
-0.915806 2.310650 0.000000
-1.099765 2.318358 0.000000
-1.296738 2.328118 0.000000
-1.507156 2.339830 0.000000
-1.731246 2.353513 0.000000
-1.969522 2.369316 0.000000
-2.222406 2.387389 0.000000
-2.490648 2.407986 0.000000
0.231887 2.514060 0.000000
0.177998 2.510577 0.000000
0.111586 2.506597 0.000000
0.032973 2.502604 0.000000
-0.057888 2.498783 0.000000
-0.160913 2.495583 0.000000
-0.276127 2.493443 0.000000
-0.403500 2.492477 0.000000
-0.542931 2.493036 0.000000
-0.694595 2.495129 0.000000
-0.858308 2.498881 0.000000
-1.034340 2.504290 0.000000
-1.222680 2.511275 0.000000
-1.423578 2.519926 0.000000
-1.637281 2.530185 0.000000
-1.864199 2.542057 0.000000
-2.104811 2.555593 0.000000
-2.359603 2.570971 0.000000
-2.629433 2.588395 0.000000
0.186496 2.710959 0.000000
0.123287 2.707489 0.000000
0.048185 2.703756 0.000000
-0.038768 2.700035 0.000000
-0.137657 2.696628 0.000000
-0.248365 2.693902 0.000000
-0.370705 2.691998 0.000000
-0.504775 2.691238 0.000000
-0.650439 2.691784 0.000000
-0.807679 2.693755 0.000000
-0.976551 2.697243 0.000000
-1.156979 2.702208 0.000000
-1.349224 2.708577 0.000000
-1.553399 2.716250 0.000000
-1.769828 2.725192 0.000000
-1.998988 2.735286 0.000000
-2.241348 2.746564 0.000000
-2.497635 2.759201 0.000000
-2.768407 2.773293 0.000000
0.131879 2.913462 0.000000
0.059870 2.909846 0.000000
-0.023598 2.906092 0.000000
-0.118625 2.902494 0.000000
-0.225205 2.899259 0.000000
-0.342862 2.896688 0.000000
-0.472066 2.894969 0.000000
-0.612235 2.894391 0.000000
-0.763606 2.894991 0.000000
-0.925950 2.896923 0.000000
-1.099240 2.900148 0.000000
-1.283608 2.904655 0.000000
-1.479036 2.910293 0.000000
-1.685935 2.916896 0.000000
-1.904505 2.924408 0.000000
-2.135330 2.932680 0.000000
-2.379013 2.941741 0.000000
-2.636075 2.951634 0.000000
-2.907469 2.962468 0.000000
0.068315 3.120821 0.000000
-0.012028 3.117059 0.000000
-0.103592 3.113171 0.000000
-0.206292 3.109435 0.000000
-0.319850 3.106161 0.000000
-0.444468 3.103652 0.000000
-0.579778 3.102093 0.000000
-0.725715 3.101608 0.000000
-0.882170 3.102326 0.000000
-1.048986 3.104201 0.000000
-1.226197 3.107192 0.000000
-1.413756 3.111211 0.000000
-1.611869 3.116081 0.000000
-1.820859 3.121603 0.000000
-2.041020 3.127670 0.000000
-2.273046 3.134082 0.000000
-2.517491 3.140871 0.000000
-2.774909 3.148070 0.000000
-3.046522 3.155814 0.000000
-0.003861 3.332364 0.000000
-0.092239 3.328315 0.000000
-0.191443 3.324191 0.000000
-0.301327 3.320332 0.000000
-0.421766 3.317110 0.000000
-0.552675 3.314583 0.000000
-0.693626 3.313027 0.000000
-0.844819 3.312535 0.000000
-1.005773 3.313223 0.000000
-1.176509 3.315022 0.000000
-1.357010 3.317824 0.000000
-1.547209 3.321440 0.000000
-1.747411 3.325641 0.000000
-1.957932 3.330139 0.000000
-2.179113 3.334737 0.000000
-2.411865 3.339229 0.000000
-2.656492 3.343670 0.000000
-2.914067 3.348109 0.000000
-3.185177 3.352640 0.000000
-0.084466 3.547306 0.000000
-0.180516 3.542952 0.000000
-0.287002 3.538631 0.000000
-0.403735 3.534703 0.000000
-0.530512 3.531336 0.000000
-0.667044 3.528802 0.000000
-0.813427 3.527274 0.000000
-0.969175 3.526860 0.000000
-1.134132 3.527595 0.000000
-1.308292 3.529384 0.000000
-1.491397 3.532012 0.000000
-1.683700 3.535229 0.000000
-1.885371 3.538680 0.000000
-2.096768 3.542082 0.000000
-2.318531 3.545186 0.000000
-2.551406 3.547742 0.000000
-2.795853 3.549772 0.000000
-3.053005 3.551324 0.000000
-3.323256 3.552571 0.000000
-0.173345 3.765409 0.000000
-0.276660 3.760616 0.000000
-0.390011 3.755927 0.000000
-0.513032 3.751705 0.000000
-0.645668 3.748245 0.000000
-0.787706 3.745807 0.000000
-0.938783 3.744461 0.000000
-1.098609 3.744265 0.000000
-1.267101 3.745168 0.000000
-1.443876 3.746979 0.000000
-1.629114 3.749466 0.000000
-1.822773 3.752249 0.000000
-2.025320 3.754926 0.000000
-2.237123 3.757209 0.000000
-2.458924 3.758732 0.000000
-2.691354 3.759317 0.000000
-2.935405 3.758943 0.000000
-3.191615 3.757718 0.000000
-3.460814 3.755915 0.000000
-0.270143 3.986363 0.000000
-0.380342 3.980958 0.000000
-0.500014 3.975840 0.000000
-0.629141 3.971368 0.000000
-0.767285 3.967856 0.000000
-0.914175 3.965416 0.000000
-1.069450 3.964199 0.000000
-1.232916 3.964224 0.000000
-1.404102 3.965343 0.000000
-1.583087 3.967322 0.000000
-1.769661 3.969756 0.000000
-1.964153 3.972194 0.000000
-2.166947 3.974152 0.000000
-2.378595 3.975244 0.000000
-2.599932 3.975077 0.000000
-2.831621 3.973626 0.000000
-3.074743 3.970801 0.000000
-3.329913 3.966772 0.000000
-3.597709 3.961904 0.000000
-0.374539 4.209214 0.000000
-0.491228 4.203286 0.000000
-0.617146 4.197859 0.000000
-0.751802 4.193227 0.000000
-0.894947 4.189651 0.000000
-1.046237 4.187339 0.000000
-1.205263 4.186438 0.000000
-1.371587 4.186825 0.000000
-1.545095 4.188274 0.000000
-1.725415 4.190452 0.000000
-1.912761 4.192834 0.000000
-2.107414 4.194895 0.000000
-2.309889 4.196024 0.000000
-2.520775 4.195881 0.000000
-2.741227 4.194016 0.000000
-2.971905 4.190390 0.000000
-3.213643 4.184984 0.000000
-3.467486 4.178043 0.000000
-3.733845 4.170063 0.000000
-0.486482 4.433599 0.000000
-0.609427 4.427161 0.000000
-0.740871 4.421359 0.000000
-0.880742 4.416546 0.000000
-1.028490 4.413082 0.000000
-1.183684 4.411173 0.000000
-1.345861 4.410717 0.000000
-1.514543 4.411660 0.000000
-1.689481 4.413633 0.000000
-1.870534 4.416066 0.000000
-2.057981 4.418401 0.000000
-2.252040 4.420028 0.000000
-2.453699 4.420311 0.000000
-2.663498 4.418870 0.000000
-2.882563 4.415279 0.000000
-3.111803 4.409430 0.000000
-3.352131 4.401480 0.000000
-3.604403 4.391700 0.000000
-3.869168 4.380694 0.000000
-0.605727 4.659124 0.000000
-0.734272 4.652054 0.000000
-0.871263 4.645878 0.000000
-1.015830 4.641145 0.000000
-1.167801 4.637975 0.000000
-1.326277 4.636502 0.000000
-1.490887 4.636741 0.000000
-1.661284 4.638392 0.000000
-1.836821 4.640959 0.000000
-2.017902 4.643747 0.000000
-2.204643 4.646067 0.000000
-2.397772 4.647215 0.000000
-2.597953 4.646617 0.000000
-2.806310 4.643816 0.000000
-3.023720 4.638485 0.000000
-3.251309 4.630539 0.000000
-3.490000 4.620094 0.000000
-3.740724 4.607468 0.000000
-4.003696 4.593449 0.000000
-0.731838 4.885531 0.000000
-0.866108 4.877860 0.000000
-1.007934 4.871478 0.000000
-1.157048 4.866718 0.000000
-1.312329 4.863943 0.000000
-1.473656 4.863184 0.000000
-1.640192 4.864332 0.000000
-1.811125 4.866873 0.000000
-1.986711 4.870170 0.000000
-2.167055 4.873328 0.000000
-2.352469 4.875641 0.000000
-2.544030 4.876286 0.000000
-2.742558 4.874772 0.000000
-2.949009 4.870650 0.000000
-3.164617 4.863638 0.000000
-3.390388 4.853577 0.000000
-3.627218 4.840647 0.000000
-3.876226 4.825219 0.000000
-4.137735 4.808207 0.000000
-0.864979 5.112259 0.000000
-1.004320 5.103954 0.000000
-1.150897 5.097292 0.000000
-1.303651 5.092851 0.000000
-1.462288 5.090819 0.000000
-1.625665 5.091171 0.000000
-1.792833 5.093461 0.000000
-1.963866 5.097077 0.000000
-2.138517 5.101047 0.000000
-2.317242 5.104534 0.000000
-2.501010 5.106687 0.000000
-2.690614 5.106838 0.000000
-2.887113 5.104504 0.000000
-3.091678 5.099197 0.000000
-3.305176 5.090651 0.000000
-3.528978 5.078685 0.000000
-3.764089 5.063516 0.000000
-4.011289 5.045563 0.000000
-4.271586 5.025665 0.000000
-1.004583 5.338130 0.000000
-1.148987 5.329375 0.000000
-1.299753 5.322940 0.000000
-1.456200 5.319230 0.000000
-1.617130 5.318342 0.000000
-1.781339 5.320063 0.000000
-1.948680 5.323757 0.000000
-2.118374 5.328449 0.000000
-2.291372 5.332973 0.000000
-2.468177 5.336647 0.000000
-2.649784 5.338676 0.000000
-2.837397 5.338395 0.000000
-3.031817 5.335442 0.000000
-3.234260 5.329350 0.000000
-3.445769 5.319680 0.000000
-3.667605 5.306313 0.000000
-3.900893 5.289257 0.000000
-4.146429 5.268894 0.000000
-4.405677 5.246182 0.000000
-1.150945 5.562708 0.000000
-1.300036 5.553751 0.000000
-1.454743 5.547734 0.000000
-1.613906 5.545054 0.000000
-1.776041 5.545769 0.000000
-1.940466 5.549376 0.000000
-2.106152 5.554603 0.000000
-2.273976 5.560165 0.000000
-2.444717 5.565144 0.000000
-2.619303 5.568962 0.000000
-2.798824 5.570930 0.000000
-2.984369 5.570484 0.000000
-3.176985 5.567391 0.000000
-3.377270 5.561140 0.000000
-3.586920 5.550990 0.000000
-3.806742 5.536818 0.000000
-4.037787 5.518218 0.000000
-4.281805 5.495533 0.000000
-4.540396 5.469799 0.000000
-1.303941 5.785838 0.000000
-1.457272 5.776698 0.000000
-1.615452 5.771413 0.000000
-1.776352 5.770557 0.000000
-1.938824 5.773545 0.000000
-2.101166 5.778922 0.000000
-2.264419 5.785194 0.000000
-2.429706 5.791245 0.000000
-2.598195 5.796545 0.000000
-2.770684 5.800579 0.000000
-2.948285 5.802811 0.000000
-3.132360 5.802840 0.000000
-3.323103 5.800335 0.000000
-3.521494 5.794583 0.000000
-3.729349 5.784784 0.000000
-3.946680 5.770602 0.000000
-4.175718 5.751367 0.000000
-4.418285 5.727159 0.000000
-4.676718 5.698639 0.000000
-1.462995 6.006110 0.000000
-1.621043 5.997273 0.000000
-1.781737 5.994150 0.000000
-1.943121 5.995913 0.000000
-2.102635 6.000994 0.000000
-2.261971 6.007409 0.000000
-2.422333 6.014216 0.000000
-2.585543 6.020624 0.000000
-2.751941 6.026461 0.000000
-2.922759 6.031234 0.000000
-3.099408 6.034414 0.000000
-3.281969 6.035684 0.000000
-3.470943 6.034502 0.000000
-3.668047 6.030048 0.000000
-3.873710 6.021857 0.000000
-4.088967 6.008910 0.000000
-4.316156 5.990438 0.000000
-4.557218 5.965690 0.000000
-4.815496 5.934615 0.000000
-1.629854 6.223018 0.000000
-1.791644 6.216341 0.000000
-1.952551 6.216116 0.000000
-2.109777 6.220112 0.000000
-2.265571 6.225964 0.000000
-2.421791 6.232795 0.000000
-2.580198 6.239977 0.000000
-2.741570 6.247156 0.000000
-2.906821 6.254061 0.000000
-3.076961 6.260273 0.000000
-3.252656 6.265307 0.000000
-3.433897 6.268637 0.000000
-3.621795 6.269715 0.000000
-3.818072 6.267973 0.000000
-4.021685 6.262938 0.000000
-4.235734 6.253086 0.000000
-4.460796 6.237229 0.000000
-4.700294 6.213757 0.000000
-4.958456 6.181381 0.000000
-1.804833 6.436249 0.000000
-1.966009 6.432668 0.000000
-2.121423 6.434492 0.000000
-2.273934 6.438982 0.000000
-2.426770 6.445018 0.000000
-2.581269 6.452470 0.000000
-2.738530 6.460762 0.000000
-2.899172 6.469583 0.000000
-3.064014 6.478493 0.000000
-3.234101 6.487003 0.000000
-3.408826 6.494830 0.000000
-3.589379 6.501312 0.000000
-3.777747 6.505976 0.000000
-3.972741 6.508629 0.000000
-4.175926 6.508238 0.000000
-4.388465 6.503550 0.000000
-4.612399 6.492796 0.000000
-4.850663 6.474118 0.000000
-5.109699 6.444228 0.000000
TENSORS STRESS float
28.254736 5.115918 0.000000
5.115918 28.243908 0.000000
0.000000 0.000000 0.000000
-23614.772544 5.431425 0.000000
5.431425 -23611.868092 0.000000
0.000000 0.000000 0.000000
-76459.892036 1.094417 0.000000
1.094417 -76455.028551 0.000000
0.000000 0.000000 0.000000
1670.271753 5.574205 0.000000
5.574205 1669.762005 0.000000
0.000000 0.000000 0.000000
-16.469841 5.199822 0.000000
5.199822 -16.712949 0.000000
0.000000 0.000000 0.000000
-33.655160 5.048556 0.000000
5.048556 -34.227663 0.000000
0.000000 0.000000 0.000000
49.895144 4.679116 0.000000
4.679116 49.124644 0.000000
0.000000 0.000000 0.000000
45.067590 4.561858 0.000000
4.561858 44.461518 0.000000
0.000000 0.000000 0.000000
72.594382 4.656109 0.000000
4.656109 71.923707 0.000000
0.000000 0.000000 0.000000
195.256132 4.978548 0.000000
4.978548 194.539352 0.000000
0.000000 0.000000 0.000000
308.520708 5.468642 0.000000
5.468642 307.641986 0.000000
0.000000 0.000000 0.000000
404.202233 6.036620 0.000000
6.036620 403.226884 0.000000
0.000000 0.000000 0.000000
506.943320 6.656794 0.000000
6.656794 505.907490 0.000000
0.000000 0.000000 0.000000
652.858926 7.328105 0.000000
7.328105 651.880943 0.000000
0.000000 0.000000 0.000000
720.959522 7.974739 0.000000
7.974739 719.856293 0.000000
0.000000 0.000000 0.000000
778.852450 8.547138 0.000000
8.547138 777.822337 0.000000
0.000000 0.000000 0.000000
800.061157 9.177255 0.000000
9.177255 799.111497 0.000000
0.000000 0.000000 0.000000
737.848548 9.659376 0.000000
9.659376 737.075611 0.000000
0.000000 0.000000 0.000000
643.205193 10.148426 0.000000
10.148426 642.494875 0.000000
0.000000 0.000000 0.000000
436.282335 10.529382 0.000000
10.529382 435.692098 0.000000
0.000000 0.000000 0.000000
155.218314 10.814028 0.000000
10.814028 154.790291 0.000000
0.000000 0.000000 0.000000
-209.344878 11.076265 0.000000
11.076265 -209.587595 0.000000
0.000000 0.000000 0.000000
-652.193753 11.306092 0.000000
11.306092 -652.327600 0.000000
0.000000 0.000000 0.000000
-1205.588176 11.448843 0.000000
11.448843 -1205.551012 0.000000
0.000000 0.000000 0.000000
-1823.312215 11.564223 0.000000
11.564223 -1823.096701 0.000000
0.000000 0.000000 0.000000
-2500.928291 11.621425 0.000000
11.621425 -2500.556319 0.000000
0.000000 0.000000 0.000000
-3223.813277 11.645993 0.000000
11.645993 -3223.156007 0.000000
0.000000 0.000000 0.000000
-4046.130097 11.639237 0.000000
11.639237 -4045.241913 0.000000
0.000000 0.000000 0.000000
-4917.324281 11.577191 0.000000
11.577191 -4916.240642 0.000000
0.000000 0.000000 0.000000
-5835.268697 11.524086 0.000000
11.524086 -5834.023160 0.000000
0.000000 0.000000 0.000000
-6856.234047 11.456825 0.000000
11.456825 -6854.857466 0.000000
0.000000 0.000000 0.000000
-7904.529676 11.336557 0.000000
11.336557 -7902.968462 0.000000
0.000000 0.000000 0.000000
-8951.218903 11.191927 0.000000
11.191927 -8949.438711 0.000000
0.000000 0.000000 0.000000
-10095.554804 11.045159 0.000000
11.045159 -10093.655291 0.000000
0.000000 0.000000 0.000000
-11345.737933 10.868487 0.000000
10.868487 -11343.768114 0.000000
0.000000 0.000000 0.000000
-12606.203806 10.641713 0.000000
10.641713 -12604.131712 0.000000
0.000000 0.000000 0.000000
-13849.336695 10.362666 0.000000
10.362666 -13847.041369 0.000000
0.000000 0.000000 0.000000
-15115.816896 10.020369 0.000000
10.020369 -15113.466917 0.000000
0.000000 0.000000 0.000000
-16495.423626 9.613900 0.000000
9.613900 -16492.991245 0.000000
0.000000 0.000000 0.000000
-17895.572280 9.157749 0.000000
9.157749 -17893.033494 0.000000
0.000000 0.000000 0.000000
-19289.659577 8.599392 0.000000
8.599392 -19287.240710 0.000000
0.000000 0.000000 0.000000
-20869.931028 7.841571 0.000000
7.841571 -20867.864289 0.000000
0.000000 0.000000 0.000000
-22784.937847 6.530803 0.000000
6.530803 -22782.924210 0.000000
0.000000 0.000000 0.000000
-21306.237295 5.613540 0.000000
5.613540 -21299.769105 0.000000
0.000000 0.000000 0.000000
-19759.344226 5.872653 0.000000
5.872653 -19751.374615 0.000000
0.000000 0.000000 0.000000
-19244.418192 5.653268 0.000000
5.653268 -19235.483899 0.000000
0.000000 0.000000 0.000000
-19185.418835 5.372715 0.000000
5.372715 -19175.443846 0.000000
0.000000 0.000000 0.000000
-19371.587849 5.188299 0.000000
5.188299 -19360.483919 0.000000
0.000000 0.000000 0.000000
-19815.644868 5.131723 0.000000
5.131723 -19803.604710 0.000000
0.000000 0.000000 0.000000
-20449.521495 5.102094 0.000000
5.102094 -20436.870872 0.000000
0.000000 0.000000 0.000000
-21286.619188 4.988049 0.000000
4.988049 -21273.453890 0.000000
0.000000 0.000000 0.000000
-22289.586199 4.845159 0.000000
4.845159 -22275.988180 0.000000
0.000000 0.000000 0.000000
-23271.747483 4.805956 0.000000
4.805956 -23257.701894 0.000000
0.000000 0.000000 0.000000
-24637.041546 4.753740 0.000000
4.753740 -24622.552531 0.000000
0.000000 0.000000 0.000000
-26451.511581 4.604756 0.000000
4.604756 -26436.891987 0.000000
0.000000 0.000000 0.000000
-28012.983316 4.621763 0.000000
4.621763 -27998.327036 0.000000
0.000000 0.000000 0.000000
-29989.614126 4.415757 0.000000
4.415757 -29975.158199 0.000000
0.000000 0.000000 0.000000
-32275.622548 4.161879 0.000000
4.161879 -32261.158952 0.000000
0.000000 0.000000 0.000000
-35585.585340 4.108097 0.000000
4.108097 -35570.796160 0.000000
0.000000 0.000000 0.000000
-40369.928135 4.376424 0.000000
4.376424 -40354.856643 0.000000
0.000000 0.000000 0.000000
-47569.404885 4.759980 0.000000
4.759980 -47554.540120 0.000000
0.000000 0.000000 0.000000
-57915.899585 4.749267 0.000000
4.749267 -57903.398948 0.000000
0.000000 0.000000 0.000000
-58959.674808 -2.383217 0.000000
-2.383217 -58958.376914 0.000000
0.000000 0.000000 0.000000
-47682.464534 -3.430061 0.000000
-3.430061 -47680.134649 0.000000
0.000000 0.000000 0.000000
-40306.131369 -3.292199 0.000000
-3.292199 -40301.971577 0.000000
0.000000 0.000000 0.000000
-35481.837745 -2.919760 0.000000
-2.919760 -35476.634234 0.000000
0.000000 0.000000 0.000000
-32506.164839 -2.846136 0.000000
-2.846136 -32501.046989 0.000000
0.000000 0.000000 0.000000
-30596.663417 -3.115449 0.000000
-3.115449 -30591.856022 0.000000
0.000000 0.000000 0.000000
-28888.587858 -3.412072 0.000000
-3.412072 -28883.717374 0.000000
0.000000 0.000000 0.000000
-27087.152652 -3.581384 0.000000
-3.581384 -27081.837093 0.000000
0.000000 0.000000 0.000000
-25438.913516 -3.664537 0.000000
-3.664537 -25433.110808 0.000000
0.000000 0.000000 0.000000
-24084.860123 -3.761068 0.000000
-3.761068 -24078.725115 0.000000
0.000000 0.000000 0.000000
-22758.401278 -4.032139 0.000000
-4.032139 -22751.916452 0.000000
0.000000 0.000000 0.000000
-21510.648142 -4.268103 0.000000
-4.268103 -21503.665804 0.000000
0.000000 0.000000 0.000000
-20286.895439 -4.439356 0.000000
-4.439356 -20279.412892 0.000000
0.000000 0.000000 0.000000
-19045.393147 -4.687753 0.000000
-4.687753 -19037.522373 0.000000
0.000000 0.000000 0.000000
-17771.647137 -4.961628 0.000000
-4.961628 -17763.197848 0.000000
0.000000 0.000000 0.000000
-16613.332885 -5.084816 0.000000
-5.084816 -16604.366454 0.000000
0.000000 0.000000 0.000000
-15444.916466 -5.267774 0.000000
-5.267774 -15435.600920 0.000000
0.000000 0.000000 0.000000
-14217.569327 -5.533157 0.000000
-5.533157 -14207.754807 0.000000
0.000000 0.000000 0.000000
-13092.953877 -5.644824 0.000000
-5.644824 -13082.656429 0.000000
0.000000 0.000000 0.000000
-11992.630965 -5.749626 0.000000
-5.749626 -11981.977826 0.000000
0.000000 0.000000 0.000000
-10852.482629 -5.912595 0.000000
-5.912595 -10841.422105 0.000000
0.000000 0.000000 0.000000
-9792.495708 -6.008299 0.000000
-6.008299 -9780.988544 0.000000
0.000000 0.000000 0.000000
-8796.129973 -6.039877 0.000000
-6.039877 -8784.269930 0.000000
0.000000 0.000000 0.000000
-7815.742418 -6.134834 0.000000
-6.134834 -7803.575760 0.000000
0.000000 0.000000 0.000000
-6855.219895 -6.202774 0.000000
-6.202774 -6842.672887 0.000000
0.000000 0.000000 0.000000
-6002.235343 -6.209521 0.000000
-6.209521 -5989.370960 0.000000
0.000000 0.000000 0.000000
-5204.544414 -6.242885 0.000000
-6.242885 -5191.406517 0.000000
0.000000 0.000000 0.000000
-4474.288218 -6.238114 0.000000
-6.238114 -4460.817022 0.000000
0.000000 0.000000 0.000000
-3732.668397 -6.333917 0.000000
-6.333917 -3718.935090 0.000000
0.000000 0.000000 0.000000
-3165.613579 -6.259383 0.000000
-6.259383 -3151.571734 0.000000
0.000000 0.000000 0.000000
-2519.858999 -6.420533 0.000000
-6.420533 -2505.502124 0.000000
0.000000 0.000000 0.000000
-1688.740667 -6.632546 0.000000
-6.632546 -1673.579407 0.000000
0.000000 0.000000 0.000000
-1704.527120 -6.204407 0.000000
-6.204407 -1689.313678 0.000000
0.000000 0.000000 0.000000
-595.123436 -6.989351 0.000000
-6.989351 -578.619665 0.000000
0.000000 0.000000 0.000000
118.371352 -7.220231 0.000000
-7.220231 136.748110 0.000000
0.000000 0.000000 0.000000
256.957320 -7.039098 0.000000
-7.039098 278.022750 0.000000
0.000000 0.000000 0.000000
1746.572114 -6.668667 0.000000
-6.668667 1773.913718 0.000000
0.000000 0.000000 0.000000
2031.919890 -1.277094 0.000000
-1.277094 2058.983045 0.000000
0.000000 0.000000 0.000000
688.257114 3.320907 0.000000
3.320907 701.221657 0.000000
0.000000 0.000000 0.000000
-582.870350 3.813295 0.000000
3.813295 -582.651069 0.000000
0.000000 0.000000 0.000000
-314.151490 1.122302 0.000000
1.122302 -314.021291 0.000000
0.000000 0.000000 0.000000
217.094245 -0.834392 0.000000
-0.834392 217.018604 0.000000
0.000000 0.000000 0.000000
172.783181 -1.231211 0.000000
-1.231211 172.732284 0.000000
0.000000 0.000000 0.000000
91.722259 -1.044189 0.000000
-1.044189 91.691729 0.000000
0.000000 0.000000 0.000000
37.309080 -0.599269 0.000000
-0.599269 37.295212 0.000000
0.000000 0.000000 0.000000
-49.413818 0.118293 0.000000
0.118293 -49.390651 0.000000
0.000000 0.000000 0.000000
-51.642686 0.768858 0.000000
0.768858 -51.621544 0.000000
0.000000 0.000000 0.000000
-38.006897 1.264068 0.000000
1.264068 -37.993398 0.000000
0.000000 0.000000 0.000000
-34.296520 1.906394 0.000000
1.906394 -34.281914 0.000000
0.000000 0.000000 0.000000
-8.221447 2.722310 0.000000
2.722310 -8.217042 0.000000
0.000000 0.000000 0.000000
-21.160303 3.395873 0.000000
3.395873 -21.151979 0.000000
0.000000 0.000000 0.000000
-65.707447 3.820939 0.000000
3.820939 -65.679779 0.000000
0.000000 0.000000 0.000000
-61.535119 4.171664 0.000000
4.171664 -61.508182 0.000000
0.000000 0.000000 0.000000
-36.891145 4.510069 0.000000
4.510069 -36.875512 0.000000
0.000000 0.000000 0.000000
-56.546159 4.725745 0.000000
4.725745 -56.523464 0.000000
0.000000 0.000000 0.000000
-44.367334 4.817547 0.000000
4.817547 -44.349490 0.000000
0.000000 0.000000 0.000000
3.302691 4.904120 0.000000
4.904120 3.300528 0.000000
0.000000 0.000000 0.000000
29.752168 5.011818 0.000000
5.011818 29.739689 0.000000
0.000000 0.000000 0.000000
15.925957 5.129320 0.000000
5.129320 15.646801 0.000000
0.000000 0.000000 0.000000
13.767350 5.019348 0.000000
5.019348 13.361154 0.000000
0.000000 0.000000 0.000000
28.110659 4.848812 0.000000
4.848812 27.556291 0.000000
0.000000 0.000000 0.000000
28.191674 4.657301 0.000000
4.657301 27.423075 0.000000
0.000000 0.000000 0.000000
29.336107 4.391106 0.000000
4.391106 28.230300 0.000000
0.000000 0.000000 0.000000
32.618067 3.985861 0.000000
3.985861 31.207465 0.000000
0.000000 0.000000 0.000000
33.705694 3.469350 0.000000
3.469350 32.053305 0.000000
0.000000 0.000000 0.000000
32.042058 2.938365 0.000000
2.938365 30.133256 0.000000
0.000000 0.000000 0.000000
27.810002 2.396876 0.000000
2.396876 25.663806 0.000000
0.000000 0.000000 0.000000
31.228971 1.773350 0.000000
1.773350 29.096019 0.000000
0.000000 0.000000 0.000000
37.244273 1.098596 0.000000
1.098596 35.237964 0.000000
0.000000 0.000000 0.000000
35.937105 0.471237 0.000000
0.471237 33.958258 0.000000
0.000000 0.000000 0.000000
23.836231 -0.057192 0.000000
-0.057192 21.970435 0.000000
0.000000 0.000000 0.000000
14.853886 -0.540467 0.000000
-0.540467 13.473008 0.000000
0.000000 0.000000 0.000000
21.867089 -0.821702 0.000000
-0.821702 21.637638 0.000000
0.000000 0.000000 0.000000
-30.029348 -0.573214 0.000000
-0.573214 -28.269019 0.000000
0.000000 0.000000 0.000000
33.783894 0.176122 0.000000
0.176122 37.257493 0.000000
0.000000 0.000000 0.000000
122.477849 0.581192 0.000000
0.581192 126.812017 0.000000
0.000000 0.000000 0.000000
25.788251 1.683983 0.000000
1.683983 31.963282 0.000000
0.000000 0.000000 0.000000
18.783184 4.968398 0.000000
4.968398 18.042929 0.000000
0.000000 0.000000 0.000000
17.193649 4.892973 0.000000
4.892973 16.252784 0.000000
0.000000 0.000000 0.000000
38.623790 4.847162 0.000000
4.847162 37.426913 0.000000
0.000000 0.000000 0.000000
65.998900 4.750101 0.000000
4.750101 64.306188 0.000000
0.000000 0.000000 0.000000
72.590093 4.519549 0.000000
4.519549 70.181112 0.000000
0.000000 0.000000 0.000000
72.996550 4.176187 0.000000
4.176187 69.920065 0.000000
0.000000 0.000000 0.000000
75.162123 3.749767 0.000000
3.749767 71.830440 0.000000
0.000000 0.000000 0.000000
78.554180 3.362098 0.000000
3.362098 75.189474 0.000000
0.000000 0.000000 0.000000
77.117210 2.943812 0.000000
2.943812 73.385533 0.000000
0.000000 0.000000 0.000000
70.879062 2.427423 0.000000
2.427423 66.775450 0.000000
0.000000 0.000000 0.000000
56.267098 1.909404 0.000000
1.909404 52.470858 0.000000
0.000000 0.000000 0.000000
44.182114 1.549937 0.000000
1.549937 41.030757 0.000000
0.000000 0.000000 0.000000
8.346857 1.188780 0.000000
1.188780 5.522461 0.000000
0.000000 0.000000 0.000000
-46.184614 0.760161 0.000000
0.760161 -47.787730 0.000000
0.000000 0.000000 0.000000
-33.463610 0.435899 0.000000
0.435899 -32.497562 0.000000
0.000000 0.000000 0.000000
4.081335 0.433093 0.000000
0.433093 7.568942 0.000000
0.000000 0.000000 0.000000
-54.520582 0.572086 0.000000
0.572086 -50.765387 0.000000
0.000000 0.000000 0.000000
-48.354284 0.519759 0.000000
0.519759 -41.479747 0.000000
0.000000 0.000000 0.000000
472.408975 0.638740 0.000000
0.638740 486.257142 0.000000
0.000000 0.000000 0.000000
33.368554 4.743160 0.000000
4.743160 32.476181 0.000000
0.000000 0.000000 0.000000
54.212686 4.834823 0.000000
4.834823 52.972200 0.000000
0.000000 0.000000 0.000000
97.461300 4.874750 0.000000
4.874750 95.514680 0.000000
0.000000 0.000000 0.000000
122.242059 4.772188 0.000000
4.772188 119.483198 0.000000
0.000000 0.000000 0.000000
123.974138 4.591499 0.000000
4.591499 120.409920 0.000000
0.000000 0.000000 0.000000
106.679100 4.315890 0.000000
4.315890 102.455226 0.000000
0.000000 0.000000 0.000000
107.739287 3.991198 0.000000
3.991198 103.195825 0.000000
0.000000 0.000000 0.000000
125.959147 3.651811 0.000000
3.651811 121.202725 0.000000
0.000000 0.000000 0.000000
116.059042 3.281575 0.000000
3.281575 110.980667 0.000000
0.000000 0.000000 0.000000
75.419022 2.902928 0.000000
2.902928 70.335726 0.000000
0.000000 0.000000 0.000000
32.164810 2.578173 0.000000
2.578173 27.744464 0.000000
0.000000 0.000000 0.000000
32.948753 2.400200 0.000000
2.400200 29.166877 0.000000
0.000000 0.000000 0.000000
-56.458632 1.919335 0.000000
1.919335 -59.131313 0.000000
0.000000 0.000000 0.000000
-129.640550 1.428547 0.000000
1.428547 -130.448406 0.000000
0.000000 0.000000 0.000000
-147.470239 0.892962 0.000000
0.892962 -146.520637 0.000000
0.000000 0.000000 0.000000
-16.479786 1.126239 0.000000
1.126239 -14.118880 0.000000
0.000000 0.000000 0.000000
-44.678136 0.679271 0.000000
0.679271 -38.276078 0.000000
0.000000 0.000000 0.000000
46.903622 0.633160 0.000000
0.633160 58.006559 0.000000
0.000000 0.000000 0.000000
633.443467 -1.951125 0.000000
-1.951125 652.149644 0.000000
0.000000 0.000000 0.000000
78.126485 4.747869 0.000000
4.747869 77.079992 0.000000
0.000000 0.000000 0.000000
133.977129 4.913119 0.000000
4.913119 132.073444 0.000000
0.000000 0.000000 0.000000
169.763674 4.950368 0.000000
4.950368 166.955036 0.000000
0.000000 0.000000 0.000000
188.104632 4.870137 0.000000
4.870137 184.426512 0.000000
0.000000 0.000000 0.000000
187.035275 4.648762 0.000000
4.648762 182.595095 0.000000
0.000000 0.000000 0.000000
170.434334 4.372723 0.000000
4.372723 165.287530 0.000000
0.000000 0.000000 0.000000
184.852775 4.176599 0.000000
4.176599 179.133471 0.000000
0.000000 0.000000 0.000000
180.252335 3.940565 0.000000
3.940565 174.473108 0.000000
0.000000 0.000000 0.000000
132.905065 3.615607 0.000000
3.615607 127.370966 0.000000
0.000000 0.000000 0.000000
70.305168 3.234660 0.000000
3.234660 64.891781 0.000000
0.000000 0.000000 0.000000
30.664126 3.033434 0.000000
3.033434 25.807026 0.000000
0.000000 0.000000 0.000000
-54.388250 2.753446 0.000000
2.753446 -57.871513 0.000000
0.000000 0.000000 0.000000
-188.492088 2.191536 0.000000
2.191536 -190.542625 0.000000
0.000000 0.000000 0.000000
-281.104306 1.662938 0.000000
1.662938 -281.930240 0.000000
0.000000 0.000000 0.000000
-304.631657 1.724837 0.000000
1.724837 -303.720208 0.000000
0.000000 0.000000 0.000000
-211.970284 1.844799 0.000000
1.844799 -207.998068 0.000000
0.000000 0.000000 0.000000
-180.181291 0.678356 0.000000
0.678356 -171.182552 0.000000
0.000000 0.000000 0.000000
-67.416228 -0.451482 0.000000
-0.451482 -53.596595 0.000000
0.000000 0.000000 0.000000
-37.949646 -4.055427 0.000000
-4.055427 -18.525613 0.000000
0.000000 0.000000 0.000000
177.308855 4.984942 0.000000
4.984942 175.811790 0.000000
0.000000 0.000000 0.000000
222.282538 5.167551 0.000000
5.167551 219.822514 0.000000
0.000000 0.000000 0.000000
248.131533 5.201780 0.000000
5.201780 244.642093 0.000000
0.000000 0.000000 0.000000
243.976144 5.099067 0.000000
5.099067 239.569805 0.000000
0.000000 0.000000 0.000000
229.608037 4.908585 0.000000
4.908585 224.382315 0.000000
0.000000 0.000000 0.000000
228.800702 4.738309 0.000000
4.738309 222.917118 0.000000
0.000000 0.000000 0.000000
210.450482 4.594535 0.000000
4.594535 204.315554 0.000000
0.000000 0.000000 0.000000
162.089495 4.361141 0.000000
4.361141 155.983462 0.000000
0.000000 0.000000 0.000000
77.298370 4.027815 0.000000
4.027815 71.495587 0.000000
0.000000 0.000000 0.000000
-6.131042 3.761172 0.000000
3.761172 -11.561965 0.000000
0.000000 0.000000 0.000000
-82.412471 3.600702 0.000000
3.600702 -86.803919 0.000000
0.000000 0.000000 0.000000
-258.831810 3.061647 0.000000
3.061647 -261.744374 0.000000
0.000000 0.000000 0.000000
-377.878152 2.699579 0.000000
2.699579 -379.549742 0.000000
0.000000 0.000000 0.000000
-480.674105 2.224371 0.000000
2.224371 -480.997290 0.000000
0.000000 0.000000 0.000000
-416.921915 2.407415 0.000000
2.407415 -414.480344 0.000000
0.000000 0.000000 0.000000
-649.204017 1.482309 0.000000
1.482309 -643.437239 0.000000
0.000000 0.000000 0.000000
-591.632559 0.634503 0.000000
0.634503 -581.391278 0.000000
0.000000 0.000000 0.000000
-419.190587 -1.717966 0.000000
-1.717966 -403.437919 0.000000
0.000000 0.000000 0.000000
-417.340815 -4.987093 0.000000
-4.987093 -400.311670 0.000000
0.000000 0.000000 0.000000
256.796637 5.316524 0.000000
5.316524 254.947820 0.000000
0.000000 0.000000 0.000000
292.854157 5.459517 0.000000
5.459517 289.847279 0.000000
0.000000 0.000000 0.000000
301.557605 5.445350 0.000000
5.445350 297.551275 0.000000
0.000000 0.000000 0.000000
286.063511 5.340728 0.000000
5.340728 281.133488 0.000000
0.000000 0.000000 0.000000
269.768529 5.207225 0.000000
5.207225 264.019296 0.000000
0.000000 0.000000 0.000000
237.698752 5.043239 0.000000
5.043239 231.529251 0.000000
0.000000 0.000000 0.000000
189.954094 4.850913 0.000000
4.850913 183.653733 0.000000
0.000000 0.000000 0.000000
98.481566 4.581922 0.000000
4.581922 92.366898 0.000000
0.000000 0.000000 0.000000
10.042943 4.326361 0.000000
4.326361 4.399772 0.000000
0.000000 0.000000 0.000000
-131.581268 4.002792 0.000000
4.002792 -136.488743 0.000000
0.000000 0.000000 0.000000
-263.594230 3.681991 0.000000
3.681991 -267.444981 0.000000
0.000000 0.000000 0.000000
-438.515062 3.142555 0.000000
3.142555 -440.909833 0.000000
0.000000 0.000000 0.000000
-538.597929 2.794512 0.000000
2.794512 -539.552651 0.000000
0.000000 0.000000 0.000000
-744.004780 2.344032 0.000000
2.344032 -743.499693 0.000000
0.000000 0.000000 0.000000
-735.046320 2.131892 0.000000
2.131892 -730.963280 0.000000
0.000000 0.000000 0.000000
-936.418430 0.901862 0.000000
0.901862 -928.750487 0.000000
0.000000 0.000000 0.000000
-953.024553 -0.405000 0.000000
-0.405000 -941.712206 0.000000
0.000000 0.000000 0.000000
-980.584046 -2.847852 0.000000
-2.847852 -966.603940 0.000000
0.000000 0.000000 0.000000
-1050.407605 -5.243711 0.000000
-5.243711 -1035.357104 0.000000
0.000000 0.000000 0.000000
360.061026 5.757392 0.000000
5.757392 357.921553 0.000000
0.000000 0.000000 0.000000
366.356595 5.863985 0.000000
5.863985 363.031464 0.000000
0.000000 0.000000 0.000000
355.953523 5.833398 0.000000
5.833398 351.550484 0.000000
0.000000 0.000000 0.000000
332.277426 5.735823 0.000000
5.735823 327.042293 0.000000
0.000000 0.000000 0.000000
282.869411 5.596549 0.000000
5.596549 276.979766 0.000000
0.000000 0.000000 0.000000
220.918000 5.441674 0.000000
5.441674 214.706626 0.000000
0.000000 0.000000 0.000000
117.854057 5.208413 0.000000
5.208413 111.770694 0.000000
0.000000 0.000000 0.000000
-3.172200 4.947536 0.000000
4.947536 -8.987627 0.000000
0.000000 0.000000 0.000000
-147.648189 4.620251 0.000000
4.620251 -152.966247 0.000000
0.000000 0.000000 0.000000
-306.866549 4.291789 0.000000
4.291789 -311.091119 0.000000
0.000000 0.000000 0.000000
-510.599028 3.813655 0.000000
3.813655 -513.788488 0.000000
0.000000 0.000000 0.000000
-662.195870 3.413243 0.000000
3.413243 -664.149078 0.000000
0.000000 0.000000 0.000000
-855.256840 2.906205 0.000000
2.906205 -855.253380 0.000000
0.000000 0.000000 0.000000
-1047.768195 2.507408 0.000000
2.507408 -1045.623859 0.000000
0.000000 0.000000 0.000000
-1212.001914 1.671581 0.000000
1.671581 -1206.584359 0.000000
0.000000 0.000000 0.000000
-1384.786907 0.306229 0.000000
0.306229 -1376.688719 0.000000
0.000000 0.000000 0.000000
-1419.664608 -1.339923 0.000000
-1.339923 -1408.390179 0.000000
0.000000 0.000000 0.000000
-1473.387014 -3.158998 0.000000
-3.158998 -1459.792078 0.000000
0.000000 0.000000 0.000000
-1693.714265 -5.127223 0.000000
-5.127223 -1679.366327 0.000000
0.000000 0.000000 0.000000
433.705512 6.244572 0.000000
6.244572 431.418007 0.000000
0.000000 0.000000 0.000000
424.694411 6.290851 0.000000
6.290851 421.129464 0.000000
0.000000 0.000000 0.000000
389.623517 6.228399 0.000000
6.228399 385.045860 0.000000
0.000000 0.000000 0.000000
332.475107 6.112252 0.000000
6.112252 327.163032 0.000000
0.000000 0.000000 0.000000
250.327335 5.933697 0.000000
5.933697 244.548208 0.000000
0.000000 0.000000 0.000000
140.586247 5.733519 0.000000
5.733519 134.705965 0.000000
0.000000 0.000000 0.000000
9.401839 5.449337 0.000000
5.449337 3.568348 0.000000
0.000000 0.000000 0.000000
-144.571739 5.179961 0.000000
5.179961 -149.841632 0.000000
0.000000 0.000000 0.000000
-358.934928 4.783438 0.000000
4.783438 -363.592804 0.000000
0.000000 0.000000 0.000000
-523.802133 4.427789 0.000000
4.427789 -527.430177 0.000000
0.000000 0.000000 0.000000
-775.662942 3.909292 0.000000
3.909292 -778.138398 0.000000
0.000000 0.000000 0.000000
-990.092802 3.532127 0.000000
3.532127 -990.976907 0.000000
0.000000 0.000000 0.000000
-1226.446892 2.895699 0.000000
2.895699 -1225.342344 0.000000
0.000000 0.000000 0.000000
-1435.938382 2.151463 0.000000
2.151463 -1432.655648 0.000000
0.000000 0.000000 0.000000
-1635.361536 1.154097 0.000000
1.154097 -1629.382660 0.000000
0.000000 0.000000 0.000000
-1876.520280 -0.179441 0.000000
-0.179441 -1867.967556 0.000000
0.000000 0.000000 0.000000
-1956.377834 -1.791442 0.000000
-1.791442 -1945.391617 0.000000
0.000000 0.000000 0.000000
-1935.557298 -3.694878 0.000000
-3.694878 -1922.873144 0.000000
0.000000 0.000000 0.000000
-2017.968726 -5.466705 0.000000
-5.466705 -2004.531122 0.000000
0.000000 0.000000 0.000000
520.062470 6.791902 0.000000
6.791902 517.625971 0.000000
0.000000 0.000000 0.000000
469.674585 6.765217 0.000000
6.765217 466.038634 0.000000
0.000000 0.000000 0.000000
403.302502 6.673336 0.000000
6.673336 398.750208 0.000000
0.000000 0.000000 0.000000
305.619054 6.515101 0.000000
6.515101 300.468078 0.000000
0.000000 0.000000 0.000000
174.327650 6.279436 0.000000
6.279436 168.870311 0.000000
0.000000 0.000000 0.000000
34.520869 6.048430 0.000000
6.048430 29.000021 0.000000
0.000000 0.000000 0.000000
-167.977403 5.719623 0.000000
5.719623 -173.209977 0.000000
0.000000 0.000000 0.000000
-355.447236 5.383480 0.000000
5.383480 -360.096379 0.000000
0.000000 0.000000 0.000000
-600.138424 4.963144 0.000000
4.963144 -604.094672 0.000000
0.000000 0.000000 0.000000
-839.730644 4.542162 0.000000
4.542162 -842.525400 0.000000
0.000000 0.000000 0.000000
-1093.908305 4.023664 0.000000
4.023664 -1095.405764 0.000000
0.000000 0.000000 0.000000
-1361.231418 3.410119 0.000000
3.410119 -1361.226227 0.000000
0.000000 0.000000 0.000000
-1617.806243 2.746399 0.000000
2.746399 -1615.850903 0.000000
0.000000 0.000000 0.000000
-1925.590064 1.814263 0.000000
1.814263 -1921.436894 0.000000
0.000000 0.000000 0.000000
-2111.317743 0.731911 0.000000
0.731911 -2104.665547 0.000000
0.000000 0.000000 0.000000
-2368.732840 -0.722906 0.000000
-0.722906 -2360.184757 0.000000
0.000000 0.000000 0.000000
-2510.883039 -2.138147 0.000000
-2.138147 -2500.633691 0.000000
0.000000 0.000000 0.000000
-2595.592226 -3.712725 0.000000
-3.712725 -2583.697473 0.000000
0.000000 0.000000 0.000000
-2694.208608 -5.275254 0.000000
-5.275254 -2681.284656 0.000000
0.000000 0.000000 0.000000
578.209445 7.350755 0.000000
7.350755 575.759028 0.000000
0.000000 0.000000 0.000000
488.090444 7.257564 0.000000
7.257564 484.520617 0.000000
0.000000 0.000000 0.000000
379.732566 7.106435 0.000000
7.106435 375.402381 0.000000
0.000000 0.000000 0.000000
223.594479 6.871787 0.000000
6.871787 218.738379 0.000000
0.000000 0.000000 0.000000
60.328408 6.631163 0.000000
6.631163 55.292630 0.000000
0.000000 0.000000 0.000000
-156.551735 6.291373 0.000000
6.291373 -161.449966 0.000000
0.000000 0.000000 0.000000
-369.140575 5.969393 0.000000
5.969393 -373.743414 0.000000
0.000000 0.000000 0.000000
-628.788466 5.543399 0.000000
5.543399 -632.720168 0.000000
0.000000 0.000000 0.000000
-896.316621 5.104813 0.000000
5.104813 -899.402010 0.000000
0.000000 0.000000 0.000000
-1194.141471 4.548169 0.000000
4.548169 -1196.190014 0.000000
0.000000 0.000000 0.000000
-1478.676477 3.995083 0.000000
3.995083 -1479.337696 0.000000
0.000000 0.000000 0.000000
-1809.422222 3.295523 0.000000
3.295523 -1808.448615 0.000000
0.000000 0.000000 0.000000
-2090.373483 2.530770 0.000000
2.530770 -2087.503990 0.000000
0.000000 0.000000 0.000000
-2431.362497 1.471635 0.000000
1.471635 -2426.715193 0.000000
0.000000 0.000000 0.000000
-2635.371435 0.309573 0.000000
0.309573 -2628.731146 0.000000
0.000000 0.000000 0.000000
-2855.385215 -1.079051 0.000000
-1.079051 -2846.942758 0.000000
0.000000 0.000000 0.000000
-3015.608280 -2.435721 0.000000
-2.435721 -3005.512247 0.000000
0.000000 0.000000 0.000000
-3151.893693 -3.848463 0.000000
-3.848463 -3140.404313 0.000000
0.000000 0.000000 0.000000
-3308.464262 -5.213845 0.000000
-5.213845 -3296.082401 0.000000
0.000000 0.000000 0.000000
613.018649 7.867049 0.000000
7.867049 610.659519 0.000000
0.000000 0.000000 0.000000
472.509357 7.717756 0.000000
7.717756 469.141911 0.000000
0.000000 0.000000 0.000000
308.362614 7.488252 0.000000
7.488252 304.334449 0.000000
0.000000 0.000000 0.000000
110.709227 7.211379 0.000000
7.211379 106.309389 0.000000
0.000000 0.000000 0.000000
-115.185974 6.898145 0.000000
6.898145 -119.615722 0.000000
0.000000 0.000000 0.000000
-367.580730 6.528103 0.000000
6.528103 -371.884666 0.000000
0.000000 0.000000 0.000000
-651.650463 6.120678 0.000000
6.120678 -655.488633 0.000000
0.000000 0.000000 0.000000
-945.869080 5.652512 0.000000
5.652512 -949.064270 0.000000
0.000000 0.000000 0.000000
-1254.188551 5.153322 0.000000
5.153322 -1256.480604 0.000000
0.000000 0.000000 0.000000
-1590.740030 4.587004 0.000000
4.587004 -1591.877915 0.000000
0.000000 0.000000 0.000000
-1929.718639 3.920355 0.000000
3.920355 -1929.480028 0.000000
0.000000 0.000000 0.000000
-2275.490894 3.118797 0.000000
3.118797 -2273.816260 0.000000
0.000000 0.000000 0.000000
-2581.812060 2.199168 0.000000
2.199168 -2578.410333 0.000000
0.000000 0.000000 0.000000
-2912.658641 1.180784 0.000000
1.180784 -2907.680631 0.000000
0.000000 0.000000 0.000000
-3214.006264 0.041418 0.000000
0.041418 -3207.276976 0.000000
0.000000 0.000000 0.000000
-3467.736592 -1.240353 0.000000
-1.240353 -3459.473204 0.000000
0.000000 0.000000 0.000000
-3646.504064 -2.619619 0.000000
-2.619619 -3636.821336 0.000000
0.000000 0.000000 0.000000
-3702.219456 -3.965069 0.000000
-3.965069 -3691.153611 0.000000
0.000000 0.000000 0.000000
-3836.412891 -5.302793 0.000000
-5.302793 -3824.293795 0.000000
0.000000 0.000000 0.000000
617.348440 8.416063 0.000000
8.416063 615.135608 0.000000
0.000000 0.000000 0.000000
412.584358 8.154874 0.000000
8.154874 409.503105 0.000000
0.000000 0.000000 0.000000
186.081760 7.868125 0.000000
7.868125 182.491519 0.000000
0.000000 0.000000 0.000000
-69.342865 7.524444 0.000000
7.524444 -73.198722 0.000000
0.000000 0.000000 0.000000
-345.746751 7.146226 0.000000
7.146226 -349.607696 0.000000
0.000000 0.000000 0.000000
-645.147394 6.723738 0.000000
6.723738 -648.721638 0.000000
0.000000 0.000000 0.000000
-969.257222 6.257574 0.000000
6.257574 -972.357484 0.000000
0.000000 0.000000 0.000000
-1312.492395 5.752233 0.000000
5.752233 -1314.843876 0.000000
0.000000 0.000000 0.000000
-1679.820993 5.159492 0.000000
5.159492 -1681.251457 0.000000
0.000000 0.000000 0.000000
-2039.628681 4.516387 0.000000
4.516387 -2040.011587 0.000000
0.000000 0.000000 0.000000
-2411.109248 3.774960 0.000000
3.774960 -2410.234044 0.000000
0.000000 0.000000 0.000000
-2793.545612 2.955853 0.000000
2.955853 -2791.278674 0.000000
0.000000 0.000000 0.000000
-3148.818667 2.006670 0.000000
2.006670 -3144.960120 0.000000
0.000000 0.000000 0.000000
-3494.344008 0.934286 0.000000
0.934286 -3489.011790 0.000000
0.000000 0.000000 0.000000
-3783.872599 -0.213274 0.000000
-0.213274 -3777.097210 0.000000
0.000000 0.000000 0.000000
-4049.064019 -1.405214 0.000000
-1.405214 -4040.983707 0.000000
0.000000 0.000000 0.000000
-4299.251734 -2.658791 0.000000
-2.658791 -4289.920371 0.000000
0.000000 0.000000 0.000000
-4429.787686 -3.888584 0.000000
-3.888584 -4419.103166 0.000000
0.000000 0.000000 0.000000
-4571.426568 -5.200780 0.000000
-5.200780 -4559.550309 0.000000
0.000000 0.000000 0.000000
552.595964 8.875583 0.000000
8.875583 550.609232 0.000000
0.000000 0.000000 0.000000
298.972536 8.567679 0.000000
8.567679 296.264838 0.000000
0.000000 0.000000 0.000000
8.830723 8.189693 0.000000
8.189693 5.676580 0.000000
0.000000 0.000000 0.000000
-289.303651 7.804879 0.000000
7.804879 -292.596994 0.000000
0.000000 0.000000 0.000000
-631.166849 7.358016 0.000000
7.358016 -634.348979 0.000000
0.000000 0.000000 0.000000
-980.234281 6.888128 0.000000
6.888128 -983.094322 0.000000
0.000000 0.000000 0.000000
-1356.209150 6.355916 0.000000
6.355916 -1358.558361 0.000000
0.000000 0.000000 0.000000
-1734.454269 5.774322 0.000000
5.774322 -1736.076363 0.000000
0.000000 0.000000 0.000000
-2128.391001 5.132782 0.000000
5.132782 -2129.112403 0.000000
0.000000 0.000000 0.000000
-2536.498400 4.435807 0.000000
4.435807 -2536.116411 0.000000
0.000000 0.000000 0.000000
-2946.461022 3.670244 0.000000
3.670244 -2944.861014 0.000000
0.000000 0.000000 0.000000
-3363.794768 2.791678 0.000000
2.791678 -3361.012289 0.000000
0.000000 0.000000 0.000000
-3720.922628 1.843358 0.000000
1.843358 -3716.826772 0.000000
0.000000 0.000000 0.000000
-4088.083208 0.754249 0.000000
0.754249 -4082.670766 0.000000
0.000000 0.000000 0.000000
-4396.318292 -0.360031 0.000000
-0.360031 -4389.566350 0.000000
0.000000 0.000000 0.000000
-4690.335162 -1.547259 0.000000
-1.547259 -4682.263905 0.000000
0.000000 0.000000 0.000000
-4952.871116 -2.712254 0.000000
-2.712254 -4943.676789 0.000000
0.000000 0.000000 0.000000
-5128.789393 -3.908488 0.000000
-3.908488 -5118.347850 0.000000
0.000000 0.000000 0.000000
-5281.103916 -5.140137 0.000000
-5.140137 -5269.603032 0.000000
0.000000 0.000000 0.000000
446.735742 9.310170 0.000000
9.310170 444.980098 0.000000
0.000000 0.000000 0.000000
116.979922 8.898738 0.000000
8.898738 114.640097 0.000000
0.000000 0.000000 0.000000
-223.133039 8.482701 0.000000
8.482701 -225.761955 0.000000
0.000000 0.000000 0.000000
-591.953094 8.015651 0.000000
8.015651 -594.644549 0.000000
0.000000 0.000000 0.000000
-970.814598 7.525385 0.000000
7.525385 -973.354321 0.000000
0.000000 0.000000 0.000000
-1367.824109 6.994226 0.000000
6.994226 -1369.988647 0.000000
0.000000 0.000000 0.000000
-1789.283211 6.420905 0.000000
6.420905 -1790.893483 0.000000
0.000000 0.000000 0.000000
-2216.378785 5.810370 0.000000
5.810370 -2217.268500 0.000000
0.000000 0.000000 0.000000
-2654.864686 5.127040 0.000000
5.127040 -2654.856754 0.000000
0.000000 0.000000 0.000000
-3089.063933 4.354017 0.000000
4.354017 -3088.093353 0.000000
0.000000 0.000000 0.000000
-3496.802721 3.523672 0.000000
3.523672 -3494.704655 0.000000
0.000000 0.000000 0.000000
-3934.537552 2.631942 0.000000
2.631942 -3931.325196 0.000000
0.000000 0.000000 0.000000
-4353.382072 1.691496 0.000000
1.691496 -4348.950638 0.000000
0.000000 0.000000 0.000000
-4760.108923 0.680830 0.000000
0.680830 -4754.549099 0.000000
0.000000 0.000000 0.000000
-5104.714993 -0.404341 0.000000
-0.404341 -5097.975045 0.000000
0.000000 0.000000 0.000000
-5383.200687 -1.573486 0.000000
-1.573486 -5375.310242 0.000000
0.000000 0.000000 0.000000
-5632.090455 -2.760258 0.000000
-2.760258 -5623.104855 0.000000
0.000000 0.000000 0.000000
-5816.076911 -3.932803 0.000000
-3.932803 -5805.918182 0.000000
0.000000 0.000000 0.000000
-6013.038209 -5.125644 0.000000
-5.125644 -6001.729894 0.000000
0.000000 0.000000 0.000000
256.996044 9.686968 0.000000
9.686968 255.523909 0.000000
0.000000 0.000000 0.000000
-128.687384 9.223090 0.000000
9.223090 -130.613402 0.000000
0.000000 0.000000 0.000000
-529.844427 8.734123 0.000000
8.734123 -531.970188 0.000000
0.000000 0.000000 0.000000
-945.238417 8.217013 0.000000
8.217013 -947.350351 0.000000
0.000000 0.000000 0.000000
-1376.759046 7.673403 0.000000
7.673403 -1378.640194 0.000000
0.000000 0.000000 0.000000
-1823.553404 7.085784 0.000000
7.085784 -1825.021941 0.000000
0.000000 0.000000 0.000000
-2272.612648 6.468827 0.000000
6.468827 -2273.520008 0.000000
0.000000 0.000000 0.000000
-2745.251288 5.779881 0.000000
5.779881 -2745.469177 0.000000
0.000000 0.000000 0.000000
-3201.857216 5.073769 0.000000
5.073769 -3201.262783 0.000000
0.000000 0.000000 0.000000
-3685.856997 4.295786 0.000000
4.295786 -3684.347792 0.000000
0.000000 0.000000 0.000000
-4139.106598 3.461065 0.000000
3.461065 -4136.548748 0.000000
0.000000 0.000000 0.000000
-4594.845842 2.541206 0.000000
2.541206 -4591.243848 0.000000
0.000000 0.000000 0.000000
-4995.201393 1.579462 0.000000
1.579462 -4990.524305 0.000000
0.000000 0.000000 0.000000
-5403.757092 0.556860 0.000000
0.556860 -5398.057201 0.000000
0.000000 0.000000 0.000000
-5784.144924 -0.478820 0.000000
-0.478820 -5777.449197 0.000000
0.000000 0.000000 0.000000
-6123.672948 -1.556932 0.000000
-1.556932 -6115.918585 0.000000
0.000000 0.000000 0.000000
-6425.900107 -2.684030 0.000000
-2.684030 -6417.104681 0.000000
0.000000 0.000000 0.000000
-6637.857372 -3.837787 0.000000
-3.837787 -6627.876965 0.000000
0.000000 0.000000 0.000000
-6830.957975 -5.043539 0.000000
-5.043539 -6819.861981 0.000000
0.000000 0.000000 0.000000
-2.399188 10.016725 0.000000
10.016725 -3.597908 0.000000
0.000000 0.000000 0.000000
-442.301202 9.496557 0.000000
9.496557 -443.823145 0.000000
0.000000 0.000000 0.000000
-901.562792 8.947235 0.000000
8.947235 -903.197353 0.000000
0.000000 0.000000 0.000000
-1369.089209 8.379964 0.000000
8.379964 -1370.626342 0.000000
0.000000 0.000000 0.000000
-1844.670890 7.781264 0.000000
7.781264 -1845.942746 0.000000
0.000000 0.000000 0.000000
-2328.536841 7.148360 0.000000
7.148360 -2329.408643 0.000000
0.000000 0.000000 0.000000
-2824.641809 6.477127 0.000000
6.477127 -2824.922543 0.000000
0.000000 0.000000 0.000000
-3316.135348 5.781344 0.000000
5.781344 -3315.735952 0.000000
0.000000 0.000000 0.000000
-3818.728593 5.026368 0.000000
5.026368 -3817.521451 0.000000
0.000000 0.000000 0.000000
-4314.305899 4.235422 0.000000
4.235422 -4312.288165 0.000000
0.000000 0.000000 0.000000
-4784.169687 3.385908 0.000000
3.385908 -4781.235833 0.000000
0.000000 0.000000 0.000000
-5255.930604 2.475143 0.000000
2.475143 -5252.098430 0.000000
0.000000 0.000000 0.000000
-5698.079034 1.522577 0.000000
1.522577 -5693.250454 0.000000
0.000000 0.000000 0.000000
-6118.162031 0.524359 0.000000
0.524359 -6112.359543 0.000000
0.000000 0.000000 0.000000
-6525.506104 -0.505510 0.000000
-0.505510 -6518.726341 0.000000
0.000000 0.000000 0.000000
-6884.405270 -1.545373 0.000000
-1.545373 -6876.655310 0.000000
0.000000 0.000000 0.000000
-7230.381608 -2.637680 0.000000
-2.637680 -7221.702719 0.000000
0.000000 0.000000 0.000000
-7479.818609 -3.762127 0.000000
-3.762127 -7470.088234 0.000000
0.000000 0.000000 0.000000
-7699.120477 -4.948086 0.000000
-4.948086 -7688.322043 0.000000
0.000000 0.000000 0.000000
-338.550470 10.257428 0.000000
10.257428 -339.441793 0.000000
0.000000 0.000000 0.000000
-836.699119 9.689096 0.000000
9.689096 -837.812348 0.000000
0.000000 0.000000 0.000000
-1340.141058 9.100479 0.000000
9.100479 -1341.291725 0.000000
0.000000 0.000000 0.000000
-1852.698224 8.485301 0.000000
8.485301 -1853.707378 0.000000
0.000000 0.000000 0.000000
-2371.139406 7.857319 0.000000
7.857319 -2371.845574 0.000000
0.000000 0.000000 0.000000
-2898.931176 7.193610 0.000000
7.193610 -2899.186706 0.000000
0.000000 0.000000 0.000000
-3416.788595 6.498896 0.000000
6.498896 -3416.511259 0.000000
0.000000 0.000000 0.000000
-3946.026355 5.747312 0.000000
5.747312 -3945.091330 0.000000
0.000000 0.000000 0.000000
-4447.800534 4.973555 0.000000
4.973555 -4446.124852 0.000000
0.000000 0.000000 0.000000
-4979.490041 4.149912 0.000000
4.149912 -4977.034750 0.000000
0.000000 0.000000 0.000000
-5483.197712 3.320866 0.000000
3.320866 -5479.882004 0.000000
0.000000 0.000000 0.000000
-5988.521024 2.441573 0.000000
2.441573 -5984.369732 0.000000
0.000000 0.000000 0.000000
-6456.260565 1.532695 0.000000
1.532695 -6451.229771 0.000000
0.000000 0.000000 0.000000
-6899.002611 0.559299 0.000000
0.559299 -6893.093517 0.000000
0.000000 0.000000 0.000000
-7306.239431 -0.455531 0.000000
-0.455531 -7299.470414 0.000000
0.000000 0.000000 0.000000
-7670.656308 -1.507127 0.000000
-1.507127 -7662.971629 0.000000
0.000000 0.000000 0.000000
-8042.341671 -2.591180 0.000000
-2.591180 -8033.770764 0.000000
0.000000 0.000000 0.000000
-8343.016412 -3.683786 0.000000
-3.683786 -8333.471541 0.000000
0.000000 0.000000 0.000000
-8625.089856 -4.860261 0.000000
-4.860261 -8614.477167 0.000000
0.000000 0.000000 0.000000
-747.706483 10.467443 0.000000
10.467443 -748.277040 0.000000
0.000000 0.000000 0.000000
-1294.005045 9.853931 0.000000
9.853931 -1294.723044 0.000000
0.000000 0.000000 0.000000
-1852.200219 9.219493 0.000000
9.219493 -1852.894279 0.000000
0.000000 0.000000 0.000000
-2398.197683 8.577191 0.000000
8.577191 -2398.679759 0.000000
0.000000 0.000000 0.000000
-2956.099385 7.898471 0.000000
7.898471 -2956.258290 0.000000
0.000000 0.000000 0.000000
-3505.828075 7.209282 0.000000
7.209282 -3505.568041 0.000000
0.000000 0.000000 0.000000
-4068.425787 6.485166 0.000000
6.485166 -4067.622071 0.000000
0.000000 0.000000 0.000000
-4623.743851 5.742582 0.000000
5.742582 -4622.331550 0.000000
0.000000 0.000000 0.000000
-5162.296507 4.961091 0.000000
4.961091 -5160.165072 0.000000
0.000000 0.000000 0.000000
-5689.922587 4.138538 0.000000
4.138538 -5687.068961 0.000000
0.000000 0.000000 0.000000
-6196.321068 3.285898 0.000000
3.285898 -6192.667441 0.000000
0.000000 0.000000 0.000000
-6710.428534 2.397410 0.000000
2.397410 -6706.001633 0.000000
0.000000 0.000000 0.000000
-7204.111196 1.495782 0.000000
1.495782 -7198.892740 0.000000
0.000000 0.000000 0.000000
-7683.397669 0.561879 0.000000
0.561879 -7677.394918 0.000000
0.000000 0.000000 0.000000
-8140.691423 -0.398591 0.000000
-0.398591 -8133.899741 0.000000
0.000000 0.000000 0.000000
-8548.145253 -1.412045 0.000000
-1.412045 -8540.495821 0.000000
0.000000 0.000000 0.000000
-8928.489624 -2.467957 0.000000
-2.467957 -8920.011397 0.000000
0.000000 0.000000 0.000000
-9272.187087 -3.583307 0.000000
-3.583307 -9262.786073 0.000000
0.000000 0.000000 0.000000
-9571.065004 -4.763909 0.000000
-4.763909 -9560.700765 0.000000
0.000000 0.000000 0.000000
-1243.436475 10.642271 0.000000
10.642271 -1243.735493 0.000000
0.000000 0.000000 0.000000
-1831.505974 9.982849 0.000000
9.982849 -1831.843774 0.000000
0.000000 0.000000 0.000000
-2424.871994 9.316705 0.000000
9.316705 -2425.121342 0.000000
0.000000 0.000000 0.000000
-3010.963747 8.635734 0.000000
8.635734 -3010.988099 0.000000
0.000000 0.000000 0.000000
-3593.217292 7.940101 0.000000
7.940101 -3592.915924 0.000000
0.000000 0.000000 0.000000
-4179.886496 7.214547 0.000000
7.214547 -4179.109216 0.000000
0.000000 0.000000 0.000000
-4750.767538 6.482256 0.000000
6.482256 -4749.475238 0.000000
0.000000 0.000000 0.000000
-5328.480526 5.716501 0.000000
5.716501 -5326.605038 0.000000
0.000000 0.000000 0.000000
-5897.957496 4.933215 0.000000
4.933215 -5895.423395 0.000000
0.000000 0.000000 0.000000
-6461.903380 4.120019 0.000000
4.120019 -6458.699755 0.000000
0.000000 0.000000 0.000000
-6993.980693 3.282248 0.000000
3.282248 -6990.034967 0.000000
0.000000 0.000000 0.000000
-7507.948789 2.416320 0.000000
2.416320 -7503.286604 0.000000
0.000000 0.000000 0.000000
-8007.105470 1.523691 0.000000
1.523691 -8001.683643 0.000000
0.000000 0.000000 0.000000
-8492.821486 0.610760 0.000000
0.610760 -8486.667228 0.000000
0.000000 0.000000 0.000000
-8978.733313 -0.338488 0.000000
-0.338488 -8971.860001 0.000000
0.000000 0.000000 0.000000
-9425.586288 -1.322747 0.000000
-1.322747 -9417.969041 0.000000
0.000000 0.000000 0.000000
-9849.449263 -2.362931 0.000000
-2.362931 -9841.059015 0.000000
0.000000 0.000000 0.000000
-10230.177515 -3.465535 0.000000
-3.465535 -10220.972030 0.000000
0.000000 0.000000 0.000000
-10570.749076 -4.639986 0.000000
-4.639986 -10560.677832 0.000000
0.000000 0.000000 0.000000
-1817.670422 10.761075 0.000000
10.761075 -1817.673764 0.000000
0.000000 0.000000 0.000000
-2439.280751 10.077834 0.000000
10.077834 -2439.273293 0.000000
0.000000 0.000000 0.000000
-3061.524926 9.380993 0.000000
9.380993 -3061.390164 0.000000
0.000000 0.000000 0.000000
-3673.668079 8.684655 0.000000
8.684655 -3673.264136 0.000000
0.000000 0.000000 0.000000
-4297.785841 7.957029 0.000000
7.957029 -4297.023868 0.000000
0.000000 0.000000 0.000000
-4896.865863 7.222061 0.000000
7.222061 -4895.663745 0.000000
0.000000 0.000000 0.000000
-5498.671329 6.460086 0.000000
6.460086 -5496.945020 0.000000
0.000000 0.000000 0.000000
-6085.106627 5.688678 0.000000
5.688678 -6082.802746 0.000000
0.000000 0.000000 0.000000
-6654.734259 4.912517 0.000000
4.912517 -6651.807948 0.000000
0.000000 0.000000 0.000000
-7234.674832 4.111126 0.000000
4.111126 -7231.105828 0.000000
0.000000 0.000000 0.000000
-7788.095947 3.308685 0.000000
3.308685 -7783.848685 0.000000
0.000000 0.000000 0.000000
-8352.325581 2.461331 0.000000
2.461331 -8347.402520 0.000000
0.000000 0.000000 0.000000
-8872.314418 1.600335 0.000000
1.600335 -8866.712286 0.000000
0.000000 0.000000 0.000000
-9379.236775 0.692103 0.000000
0.692103 -9372.954876 0.000000
0.000000 0.000000 0.000000
-9868.838702 -0.242453 0.000000
-0.242453 -9861.911436 0.000000
0.000000 0.000000 0.000000
-10335.740992 -1.219677 0.000000
-1.219677 -10328.146892 0.000000
0.000000 0.000000 0.000000
-10791.156761 -2.252234 0.000000
-2.252234 -10782.860048 0.000000
0.000000 0.000000 0.000000
-11214.199788 -3.335801 0.000000
-3.335801 -11205.181683 0.000000
0.000000 0.000000 0.000000
-11618.212068 -4.506986 0.000000
-4.506986 -11608.392496 0.000000
0.000000 0.000000 0.000000
-2452.270534 10.854427 0.000000
10.854427 -2452.026275 0.000000
0.000000 0.000000 0.000000
-3117.434377 10.134098 0.000000
10.134098 -3117.118895 0.000000
0.000000 0.000000 0.000000
-3762.835387 9.424704 0.000000
9.424704 -3762.298197 0.000000
0.000000 0.000000 0.000000
-4408.955969 8.703960 0.000000
8.703960 -4408.146675 0.000000
0.000000 0.000000 0.000000
-5042.981275 7.974994 0.000000
7.974994 -5041.836013 0.000000
0.000000 0.000000 0.000000
-5670.788014 7.230492 0.000000
7.230492 -5669.167406 0.000000
0.000000 0.000000 0.000000
-6292.378966 6.474300 0.000000
6.474300 -6290.252702 0.000000
0.000000 0.000000 0.000000
-6897.138382 5.704143 0.000000
5.704143 -6894.432922 0.000000
0.000000 0.000000 0.000000
-7491.866229 4.912982 0.000000
4.912982 -7488.552744 0.000000
0.000000 0.000000 0.000000
-8068.949967 4.119466 0.000000
4.119466 -8065.021411 0.000000
0.000000 0.000000 0.000000
-8632.076504 3.309863 0.000000
3.309863 -8627.515213 0.000000
0.000000 0.000000 0.000000
-9186.008285 2.494363 0.000000
2.494363 -9180.843908 0.000000
0.000000 0.000000 0.000000
-9730.916906 1.656521 0.000000
1.656521 -9725.137485 0.000000
0.000000 0.000000 0.000000
-10266.492136 0.787135 0.000000
0.787135 -10260.106305 0.000000
0.000000 0.000000 0.000000
-10791.430516 -0.118566 0.000000
-0.118566 -10784.441972 0.000000
0.000000 0.000000 0.000000
-11309.945500 -1.081838 0.000000
-1.081838 -11302.364589 0.000000
0.000000 0.000000 0.000000
-11785.343232 -2.097858 0.000000
-2.097858 -11777.151259 0.000000
0.000000 0.000000 0.000000
-12249.557496 -3.195045 0.000000
-3.195045 -12240.709219 0.000000
0.000000 0.000000 0.000000
-12676.081634 -4.359834 0.000000
-4.359834 -12666.546688 0.000000
0.000000 0.000000 0.000000
-3166.743084 10.905954 0.000000
10.905954 -3166.250143 0.000000
0.000000 0.000000 0.000000
-3858.561307 10.164199 0.000000
10.164199 -3857.929335 0.000000
0.000000 0.000000 0.000000
-4515.466206 9.441543 0.000000
9.441543 -4514.592288 0.000000
0.000000 0.000000 0.000000
-5181.013041 8.705020 0.000000
8.705020 -5179.835446 0.000000
0.000000 0.000000 0.000000
-5851.146950 7.956363 0.000000
7.956363 -5849.580725 0.000000
0.000000 0.000000 0.000000
-6483.237532 7.221528 0.000000
7.221528 -6481.216169 0.000000
0.000000 0.000000 0.000000
-7126.054645 6.451141 0.000000
6.451141 -7123.555782 0.000000
0.000000 0.000000 0.000000
-7733.470311 5.698143 0.000000
5.698143 -7730.402197 0.000000
0.000000 0.000000 0.000000
-8341.850309 4.919283 0.000000
4.919283 -8338.213167 0.000000
0.000000 0.000000 0.000000
-8925.935430 4.148032 0.000000
4.148032 -8921.690938 0.000000
0.000000 0.000000 0.000000
-9502.700924 3.359968 0.000000
3.359968 -9497.847818 0.000000
0.000000 0.000000 0.000000
-10078.279423 2.560860 0.000000
2.560860 -10072.846037 0.000000
0.000000 0.000000 0.000000
-10639.804018 1.748146 0.000000
1.748146 -10633.806348 0.000000
0.000000 0.000000 0.000000
-11197.140309 0.895914 0.000000
0.895914 -11190.607730 0.000000
0.000000 0.000000 0.000000
-11737.729704 0.009769 0.000000
0.009769 -11730.675558 0.000000
0.000000 0.000000 0.000000
-12279.390861 -0.937491 0.000000
-0.937491 -12271.843903 0.000000
0.000000 0.000000 0.000000
-12802.864773 -1.944411 0.000000
-1.944411 -12794.788355 0.000000
0.000000 0.000000 0.000000
-13305.217358 -3.034117 0.000000
-3.034117 -13296.595172 0.000000
0.000000 0.000000 0.000000
-13771.755318 -4.212894 0.000000
-4.212894 -13762.552521 0.000000
0.000000 0.000000 0.000000
-3962.436542 10.911154 0.000000
10.911154 -3961.716858 0.000000
0.000000 0.000000 0.000000
-4647.576800 10.186924 0.000000
10.186924 -4646.664121 0.000000
0.000000 0.000000 0.000000
-5339.123530 9.440608 0.000000
9.440608 -5337.934021 0.000000
0.000000 0.000000 0.000000
-6025.538150 8.685927 0.000000
8.685927 -6024.004033 0.000000
0.000000 0.000000 0.000000
-6685.045712 7.939761 0.000000
7.939761 -6683.121825 0.000000
0.000000 0.000000 0.000000
-7340.783691 7.185488 0.000000
7.185488 -7338.405227 0.000000
0.000000 0.000000 0.000000
-7987.273610 6.433385 0.000000
6.433385 -7984.373010 0.000000
0.000000 0.000000 0.000000
-8613.155687 5.690160 0.000000
5.690160 -8609.716634 0.000000
0.000000 0.000000 0.000000
-9228.283821 4.944140 0.000000
4.944140 -9224.268898 0.000000
0.000000 0.000000 0.000000
-9838.247564 4.190099 0.000000
4.190099 -9833.661257 0.000000
0.000000 0.000000 0.000000
-10417.888875 3.437293 0.000000
3.437293 -10412.739098 0.000000
0.000000 0.000000 0.000000
-11000.668772 2.659363 0.000000
2.659363 -10994.973183 0.000000
0.000000 0.000000 0.000000
-11571.791117 1.865597 0.000000
1.865597 -11565.605763 0.000000
0.000000 0.000000 0.000000
-12146.725517 1.033250 0.000000
1.033250 -12140.074065 0.000000
0.000000 0.000000 0.000000
-12713.229186 0.157969 0.000000
0.157969 -12706.135048 0.000000
0.000000 0.000000 0.000000
-13287.757215 -0.779746 0.000000
-0.779746 -13280.253278 0.000000
0.000000 0.000000 0.000000
-13842.885287 -1.782801 0.000000
-1.782801 -13834.942949 0.000000
0.000000 0.000000 0.000000
-14378.194708 -2.848370 0.000000
-2.848370 -14369.826986 0.000000
0.000000 0.000000 0.000000
-14919.922891 -4.033402 0.000000
-4.033402 -14911.056425 0.000000
0.000000 0.000000 0.000000
-4783.788105 10.902581 0.000000
10.902581 -4782.814195 0.000000
0.000000 0.000000 0.000000
-5504.626693 10.165677 0.000000
10.165677 -5503.435038 0.000000
0.000000 0.000000 0.000000
-6210.535302 9.413474 0.000000
9.413474 -6209.052001 0.000000
0.000000 0.000000 0.000000
-6902.669542 8.657352 0.000000
8.657352 -6900.843742 0.000000
0.000000 0.000000 0.000000
-7571.285547 7.916266 0.000000
7.916266 -7569.009038 0.000000
0.000000 0.000000 0.000000
-8258.315858 7.148449 0.000000
7.148449 -8255.558769 0.000000
0.000000 0.000000 0.000000
-8881.765075 6.427535 0.000000
6.427535 -8878.476418 0.000000
0.000000 0.000000 0.000000
-9531.530244 5.672320 0.000000
5.672320 -9527.695542 0.000000
0.000000 0.000000 0.000000
-10139.032021 4.950206 0.000000
4.950206 -10134.634658 0.000000
0.000000 0.000000 0.000000
-10738.254628 4.231579 0.000000
4.231579 -10733.326923 0.000000
0.000000 0.000000 0.000000
-11343.558617 3.492896 0.000000
3.492896 -11338.100731 0.000000
0.000000 0.000000 0.000000
-11925.795918 2.763827 0.000000
2.763827 -11919.862010 0.000000
0.000000 0.000000 0.000000
-12529.256088 1.991568 0.000000
1.991568 -12522.885793 0.000000
0.000000 0.000000 0.000000
-13124.676453 1.189107 0.000000
1.189107 -13117.912168 0.000000
0.000000 0.000000 0.000000
-13716.859389 0.336777 0.000000
0.336777 -13709.744303 0.000000
0.000000 0.000000 0.000000
-14325.199333 -0.599875 0.000000
-0.599875 -14317.754723 0.000000
0.000000 0.000000 0.000000
-14904.124544 -1.587796 0.000000
-1.587796 -14896.345256 0.000000
0.000000 0.000000 0.000000
-15501.169800 -2.676053 0.000000
-2.676053 -15493.034253 0.000000
0.000000 0.000000 0.000000
-16063.550141 -3.835950 0.000000
-3.835950 -16055.016699 0.000000
0.000000 0.000000 0.000000
-5661.647551 10.848830 0.000000
10.848830 -5660.419682 0.000000
0.000000 0.000000 0.000000
-6404.168134 10.102223 0.000000
10.102223 -6402.714342 0.000000
0.000000 0.000000 0.000000
-7127.288626 9.356721 0.000000
9.356721 -7125.521628 0.000000
0.000000 0.000000 0.000000
-7833.550422 8.611478 0.000000
8.611478 -7831.372174 0.000000
0.000000 0.000000 0.000000
-8529.022632 7.861483 0.000000
7.861483 -8526.388840 0.000000
0.000000 0.000000 0.000000
-9180.834566 7.136684 0.000000
7.136684 -9177.715400 0.000000
0.000000 0.000000 0.000000
-9839.619895 6.392450 0.000000
6.392450 -9835.967254 0.000000
0.000000 0.000000 0.000000
-10456.859000 5.680997 0.000000
5.680997 -10452.648038 0.000000
0.000000 0.000000 0.000000
-11066.456992 4.976922 0.000000
4.976922 -11061.695320 0.000000
0.000000 0.000000 0.000000
-11688.217228 4.268299 0.000000
4.268299 -11682.919842 0.000000
0.000000 0.000000 0.000000
-12275.391048 3.586960 0.000000
3.586960 -12269.618058 0.000000
0.000000 0.000000 0.000000
-12887.312156 2.870322 0.000000
2.870322 -12881.100610 0.000000
0.000000 0.000000 0.000000
-13493.597534 2.136380 0.000000
2.136380 -13487.031499 0.000000
0.000000 0.000000 0.000000
-14106.560556 1.362065 0.000000
1.362065 -14099.690062 0.000000
0.000000 0.000000 0.000000
-14744.452968 0.514565 0.000000
0.514565 -14737.341749 0.000000
0.000000 0.000000 0.000000
-15378.103489 -0.404802 0.000000
-0.404802 -15370.763473 0.000000
0.000000 0.000000 0.000000
-15988.553893 -1.391551 0.000000
-1.391551 -15980.978740 0.000000
0.000000 0.000000 0.000000
-16620.361468 -2.502917 0.000000
-2.502917 -16612.524740 0.000000
0.000000 0.000000 0.000000
-17186.999184 -3.657931 0.000000
-3.657931 -17178.870995 0.000000
0.000000 0.000000 0.000000
-6599.773994 10.763954 0.000000
10.763954 -6598.308265 0.000000
0.000000 0.000000 0.000000
-7347.565743 10.021284 0.000000
10.021284 -7345.829246 0.000000
0.000000 0.000000 0.000000
-8089.252897 9.265013 0.000000
9.265013 -8087.163213 0.000000
0.000000 0.000000 0.000000
-8784.592135 8.526309 0.000000
8.526309 -8782.078303 0.000000
0.000000 0.000000 0.000000
-9478.441232 7.782707 0.000000
7.782707 -9475.477753 0.000000
0.000000 0.000000 0.000000
-10140.810305 7.065523 0.000000
7.065523 -10137.312322 0.000000
0.000000 0.000000 0.000000
-10796.793975 6.358871 0.000000
6.358871 -10792.747803 0.000000
0.000000 0.000000 0.000000
-11420.866566 5.680725 0.000000
5.680725 -11416.255375 0.000000
0.000000 0.000000 0.000000
-12039.625711 5.007203 0.000000
5.007203 -12034.457611 0.000000
0.000000 0.000000 0.000000
-12629.780144 4.356919 0.000000
4.356919 -12624.114472 0.000000
0.000000 0.000000 0.000000
-13242.202635 3.691590 0.000000
3.691590 -13236.091376 0.000000
0.000000 0.000000 0.000000
-13847.504823 3.021412 0.000000
3.021412 -13841.033605 0.000000
0.000000 0.000000 0.000000
-14478.958152 2.302373 0.000000
2.302373 -14472.222647 0.000000
0.000000 0.000000 0.000000
-15103.779189 1.552046 0.000000
1.552046 -15096.829983 0.000000
0.000000 0.000000 0.000000
-15775.792624 0.712537 0.000000
0.712537 -15768.707295 0.000000
0.000000 0.000000 0.000000
-16430.807377 -0.182859 0.000000
-0.182859 -16423.603872 0.000000
0.000000 0.000000 0.000000
-17110.811037 -1.193273 0.000000
-1.193273 -17103.482689 0.000000
0.000000 0.000000 0.000000
-17763.945862 -2.273991 0.000000
-2.273991 -17756.479573 0.000000
0.000000 0.000000 0.000000
-18390.347480 -3.436397 0.000000
-3.436397 -18382.656012 0.000000
0.000000 0.000000 0.000000
-7600.245841 10.691085 0.000000
10.691085 -7598.545809 0.000000
0.000000 0.000000 0.000000
-8366.374064 9.926349 0.000000
9.926349 -8364.380467 0.000000
0.000000 0.000000 0.000000
-9085.581604 9.177736 0.000000
9.177736 -9083.213544 0.000000
0.000000 0.000000 0.000000
-9797.029604 8.425014 0.000000
8.425014 -9794.214049 0.000000
0.000000 0.000000 0.000000
-10470.785099 7.703432 0.000000
7.703432 -10467.426086 0.000000
0.000000 0.000000 0.000000
-11144.570216 6.988517 0.000000
6.988517 -11140.653019 0.000000
0.000000 0.000000 0.000000
-11770.820119 6.318550 0.000000
6.318550 -11766.330701 0.000000
0.000000 0.000000 0.000000
-12388.028068 5.667589 0.000000
5.667589 -12382.967693 0.000000
0.000000 0.000000 0.000000
-12991.110871 5.042202 0.000000
5.042202 -12985.525848 0.000000
0.000000 0.000000 0.000000
-13593.917492 4.425038 0.000000
4.425038 -13587.859141 0.000000
0.000000 0.000000 0.000000
-14197.771869 3.811992 0.000000
3.811992 -14191.336912 0.000000
0.000000 0.000000 0.000000
-14815.306983 3.177889 0.000000
3.177889 -14808.596069 0.000000
0.000000 0.000000 0.000000
-15459.777032 2.501040 0.000000
2.501040 -15452.885235 0.000000
0.000000 0.000000 0.000000
-16126.030024 1.761104 0.000000
1.761104 -16119.021956 0.000000
0.000000 0.000000 0.000000
-16827.800093 0.931953 0.000000
0.931953 -16820.784524 0.000000
0.000000 0.000000 0.000000
-17513.269524 0.044802 0.000000
0.044802 -17506.232082 0.000000
0.000000 0.000000 0.000000
-18240.258046 -0.971164 0.000000
-0.971164 -18233.189647 0.000000
0.000000 0.000000 0.000000
-18950.274704 -2.056098 0.000000
-2.056098 -18943.149884 0.000000
0.000000 0.000000 0.000000
-19616.381272 -3.208608 0.000000
-3.208608 -19609.094156 0.000000
0.000000 0.000000 0.000000
-8647.507139 10.585647 0.000000
10.585647 -8645.602898 0.000000
0.000000 0.000000 0.000000
-9408.756398 9.824580 0.000000
9.824580 -9406.538009 0.000000
0.000000 0.000000 0.000000
-10141.983936 9.072659 0.000000
9.072659 -10139.330591 0.000000
0.000000 0.000000 0.000000
-10847.583087 8.334854 0.000000
8.334854 -10844.403862 0.000000
0.000000 0.000000 0.000000
-11520.391492 7.616881 0.000000
7.616881 -11516.651322 0.000000
0.000000 0.000000 0.000000
-12151.030002 6.937836 0.000000
6.937836 -12146.703130 0.000000
0.000000 0.000000 0.000000
-12766.188101 6.287922 0.000000
6.287922 -12761.247051 0.000000
0.000000 0.000000 0.000000
-13368.707948 5.669286 0.000000
5.669286 -13363.184272 0.000000
0.000000 0.000000 0.000000
-13955.339730 5.089956 0.000000
5.089956 -13949.301360 0.000000
0.000000 0.000000 0.000000
-14541.644779 4.524567 0.000000
4.524567 -14535.167876 0.000000
0.000000 0.000000 0.000000
-15143.770257 3.960887 0.000000
3.960887 -15136.986073 0.000000
0.000000 0.000000 0.000000
-15790.536079 3.356444 0.000000
3.356444 -15783.564879 0.000000
0.000000 0.000000 0.000000
-16448.389623 2.713556 0.000000
2.713556 -16441.360356 0.000000
0.000000 0.000000 0.000000
-17133.250826 1.997410 0.000000
1.997410 -17126.239750 0.000000
0.000000 0.000000 0.000000
-17870.503019 1.174389 0.000000
1.174389 -17863.592735 0.000000
0.000000 0.000000 0.000000
-18625.223163 0.255789 0.000000
0.255789 -18618.400253 0.000000
0.000000 0.000000 0.000000
-19348.670375 -0.735300 0.000000
-0.735300 -19341.919627 0.000000
0.000000 0.000000 0.000000
-20115.225421 -1.861861 0.000000
-1.861861 -20108.490782 0.000000
0.000000 0.000000 0.000000
-20826.024591 -3.038150 0.000000
-3.038150 -20819.193228 0.000000
0.000000 0.000000 0.000000
-9733.127609 10.426281 0.000000
10.426281 -9731.037679 0.000000
0.000000 0.000000 0.000000
-10493.127854 9.672276 0.000000
9.672276 -10490.625576 0.000000
0.000000 0.000000 0.000000
-11233.588261 8.918059 0.000000
8.918059 -11230.595581 0.000000
0.000000 0.000000 0.000000
-11915.115803 8.196366 0.000000
8.196366 -11911.584204 0.000000
0.000000 0.000000 0.000000
-12558.328093 7.509730 0.000000
7.509730 -12554.189267 0.000000
0.000000 0.000000 0.000000
-13187.214508 6.851283 0.000000
6.851283 -13182.411039 0.000000
0.000000 0.000000 0.000000
-13781.423296 6.246868 0.000000
6.246868 -13775.991241 0.000000
0.000000 0.000000 0.000000
-14337.309104 5.704776 0.000000
5.704776 -14331.286163 0.000000
0.000000 0.000000 0.000000
-14921.986386 5.166932 0.000000
5.166932 -14915.453296 0.000000
0.000000 0.000000 0.000000
-15495.105563 4.665279 0.000000
4.665279 -15488.214161 0.000000
0.000000 0.000000 0.000000
-16104.968367 4.138629 0.000000
4.138629 -16097.839997 0.000000
0.000000 0.000000 0.000000
-16737.665876 3.589044 0.000000
3.589044 -16730.466078 0.000000
0.000000 0.000000 0.000000
-17444.423715 2.952151 0.000000
2.952151 -17437.291517 0.000000
0.000000 0.000000 0.000000
-18171.383704 2.252767 0.000000
2.252767 -18164.407207 0.000000
0.000000 0.000000 0.000000
-18938.296544 1.447467 0.000000
1.447467 -18931.518800 0.000000
0.000000 0.000000 0.000000
-19749.498201 0.512445 0.000000
0.512445 -19742.963192 0.000000
0.000000 0.000000 0.000000
-20537.568738 -0.509122 0.000000
-0.509122 -20531.196847 0.000000
0.000000 0.000000 0.000000
-21307.811066 -1.624234 0.000000
-1.624234 -21301.520518 0.000000
0.000000 0.000000 0.000000
-22075.062316 -2.837043 0.000000
-2.837043 -22068.707279 0.000000
0.000000 0.000000 0.000000
-10867.931248 10.252409 0.000000
10.252409 -10865.604548 0.000000
0.000000 0.000000 0.000000
-11630.681569 9.474107 0.000000
9.474107 -11627.908835 0.000000
0.000000 0.000000 0.000000
-12323.920997 8.745261 0.000000
8.745261 -12320.641869 0.000000
0.000000 0.000000 0.000000
-12985.642555 8.042864 0.000000
8.042864 -12981.704821 0.000000
0.000000 0.000000 0.000000
-13645.990666 7.362596 0.000000
7.362596 -13641.366832 0.000000
0.000000 0.000000 0.000000
-14207.212125 6.782640 0.000000
6.782640 -14201.885488 0.000000
0.000000 0.000000 0.000000
-14762.358369 6.237202 0.000000
6.237202 -14756.357366 0.000000
0.000000 0.000000 0.000000
-15338.601600 5.714442 0.000000
5.714442 -15332.012124 0.000000
0.000000 0.000000 0.000000
-15846.721621 5.285273 0.000000
5.285273 -15839.680654 0.000000
0.000000 0.000000 0.000000
-16424.508088 4.821073 0.000000
4.821073 -16417.179161 0.000000
0.000000 0.000000 0.000000
-17030.472203 4.343197 0.000000
4.343197 -17023.029803 0.000000
0.000000 0.000000 0.000000
-17684.193451 3.817866 0.000000
3.817866 -17676.808140 0.000000
0.000000 0.000000 0.000000
-18394.677854 3.225615 0.000000
3.225615 -18387.462625 0.000000
0.000000 0.000000 0.000000
-19199.154141 2.505087 0.000000
2.505087 -19192.243713 0.000000
0.000000 0.000000 0.000000
-20011.200887 1.709966 0.000000
1.709966 -20004.622455 0.000000
0.000000 0.000000 0.000000
-20874.686936 0.785883 0.000000
0.785883 -20868.456623 0.000000
0.000000 0.000000 0.000000
-21753.130925 -0.261470 0.000000
-0.261470 -21747.154832 0.000000
0.000000 0.000000 0.000000
-22600.084110 -1.400170 0.000000
-1.400170 -22594.235014 0.000000
0.000000 0.000000 0.000000
-23369.837008 -2.583656 0.000000
-2.583656 -23363.951114 0.000000
0.000000 0.000000 0.000000
-12077.670612 10.049366 0.000000
10.049366 -12075.177834 0.000000
0.000000 0.000000 0.000000
-12766.980399 9.303063 0.000000
9.303063 -12763.959878 0.000000
0.000000 0.000000 0.000000
-13479.684088 8.539473 0.000000
8.539473 -13476.009559 0.000000
0.000000 0.000000 0.000000
-14119.361775 7.837350 0.000000
7.837350 -14114.973484 0.000000
0.000000 0.000000 0.000000
-14653.334681 7.242334 0.000000
7.242334 -14648.182534 0.000000
0.000000 0.000000 0.000000
-15222.676974 6.655363 0.000000
6.655363 -15216.792103 0.000000
0.000000 0.000000 0.000000
-15728.334499 6.171403 0.000000
6.171403 -15721.727236 0.000000
0.000000 0.000000 0.000000
-16195.292397 5.779692 0.000000
5.779692 -16188.117681 0.000000
0.000000 0.000000 0.000000
-16740.551208 5.374707 0.000000
5.374707 -16732.984456 0.000000
0.000000 0.000000 0.000000
-17307.560594 4.992330 0.000000
4.992330 -17299.810980 0.000000
0.000000 0.000000 0.000000
-17906.631747 4.590184 0.000000
4.590184 -17898.883249 0.000000
0.000000 0.000000 0.000000
-18631.845830 4.072603 0.000000
4.072603 -18624.294981 0.000000
0.000000 0.000000 0.000000
-19370.964728 3.501468 0.000000
3.501468 -19363.717458 0.000000
0.000000 0.000000 0.000000
-20213.660353 2.805110 0.000000
2.805110 -20206.846290 0.000000
0.000000 0.000000 0.000000
-21104.776199 1.992883 0.000000
1.992883 -21098.402364 0.000000
0.000000 0.000000 0.000000
-22052.071850 1.053457 0.000000
1.053457 -22046.139224 0.000000
0.000000 0.000000 0.000000
-22981.698714 0.001118 0.000000
0.001118 -22976.143578 0.000000
0.000000 0.000000 0.000000
-23900.763438 -1.183485 0.000000
-1.183485 -23895.410626 0.000000
0.000000 0.000000 0.000000
-24711.269388 -2.414084 0.000000
-2.414084 -24705.870206 0.000000
0.000000 0.000000 0.000000
-13275.441089 9.874316 0.000000
9.874316 -13272.730439 0.000000
0.000000 0.000000 0.000000
-14046.047963 9.055966 0.000000
9.055966 -14042.732302 0.000000
0.000000 0.000000 0.000000
-14650.542249 8.342305 0.000000
8.342305 -14646.481107 0.000000
0.000000 0.000000 0.000000
-15208.307643 7.684636 0.000000
7.684636 -15203.443239 0.000000
0.000000 0.000000 0.000000
-15749.685769 7.084023 0.000000
7.084023 -15743.966226 0.000000
0.000000 0.000000 0.000000
-16216.042356 6.608594 0.000000
6.608594 -16209.464664 0.000000
0.000000 0.000000 0.000000
-16655.847403 6.219825 0.000000
6.219825 -16648.567034 0.000000
0.000000 0.000000 0.000000
-17121.528342 5.873465 0.000000
5.873465 -17113.702144 0.000000
0.000000 0.000000 0.000000
-17601.131503 5.572011 0.000000
5.572011 -17593.015266 0.000000
0.000000 0.000000 0.000000
-18155.876747 5.240734 0.000000
5.240734 -18147.690224 0.000000
0.000000 0.000000 0.000000
-18805.466626 4.838057 0.000000
4.838057 -18797.439896 0.000000
0.000000 0.000000 0.000000
-19519.402653 4.380967 0.000000
4.380967 -19511.716280 0.000000
0.000000 0.000000 0.000000
-20344.261887 3.793960 0.000000
3.793960 -20336.996083 0.000000
0.000000 0.000000 0.000000
-21260.701519 3.101728 0.000000
3.101728 -21253.992092 0.000000
0.000000 0.000000 0.000000
-22216.094210 2.296999 0.000000
2.296999 -22209.940720 0.000000
0.000000 0.000000 0.000000
-23238.550229 1.345678 0.000000
1.345678 -23232.955575 0.000000
0.000000 0.000000 0.000000
-24294.756826 0.257692 0.000000
0.257692 -24289.644985 0.000000
0.000000 0.000000 0.000000
-25274.485886 -0.911611 0.000000
-0.911611 -25269.633679 0.000000
0.000000 0.000000 0.000000
-26213.063896 -2.211789 0.000000
-2.211789 -26208.147497 0.000000
0.000000 0.000000 0.000000
-14580.103885 9.542527 0.000000
9.542527 -14577.216058 0.000000
0.000000 0.000000 0.000000
-15207.964458 8.783285 0.000000
8.783285 -15204.375434 0.000000
0.000000 0.000000 0.000000
-15801.844549 8.056207 0.000000
8.056207 -15797.388613 0.000000
0.000000 0.000000 0.000000
-16309.165298 7.437512 0.000000
7.437512 -16303.709759 0.000000
0.000000 0.000000 0.000000
-16765.254641 6.926642 0.000000
6.926642 -16758.812908 0.000000
0.000000 0.000000 0.000000
-17142.987685 6.547733 0.000000
6.547733 -17135.667790 0.000000
0.000000 0.000000 0.000000
-17530.279981 6.248856 0.000000
6.248856 -17522.262133 0.000000
0.000000 0.000000 0.000000
-17899.393646 6.027139 0.000000
6.027139 -17890.911769 0.000000
0.000000 0.000000 0.000000
-18409.125153 5.753123 0.000000
5.753123 -18400.503513 0.000000
0.000000 0.000000 0.000000
-18937.744279 5.482345 0.000000
5.482345 -18929.190784 0.000000
0.000000 0.000000 0.000000
-19616.381740 5.112477 0.000000
5.112477 -19608.118717 0.000000
0.000000 0.000000 0.000000
-20431.105438 4.635966 0.000000
4.635966 -20423.279227 0.000000
0.000000 0.000000 0.000000
-21292.864314 4.099585 0.000000
4.099585 -21285.577165 0.000000
0.000000 0.000000 0.000000
-22314.522929 3.411433 0.000000
3.411433 -22307.869685 0.000000
0.000000 0.000000 0.000000
-23400.749626 2.611521 0.000000
2.611521 -23394.794973 0.000000
0.000000 0.000000 0.000000
-24507.220263 1.689250 0.000000
1.689250 -24501.883138 0.000000
0.000000 0.000000 0.000000
-25727.081965 0.579013 0.000000
0.579013 -25722.309117 0.000000
0.000000 0.000000 0.000000
-26836.519577 -0.613796 0.000000
-0.613796 -26832.090757 0.000000
0.000000 0.000000 0.000000
-27869.972771 -1.955714 0.000000
-1.955714 -27865.491796 0.000000
0.000000 0.000000 0.000000
-15800.924167 9.188735 0.000000
9.188735 -15797.864300 0.000000
0.000000 0.000000 0.000000
-16442.996724 8.393432 0.000000
8.393432 -16439.039769 0.000000
0.000000 0.000000 0.000000
-16938.975888 7.725724 0.000000
7.725724 -16933.926987 0.000000
0.000000 0.000000 0.000000
-17362.330682 7.161929 0.000000
7.161929 -17356.168920 0.000000
0.000000 0.000000 0.000000
-17667.268952 6.769227 0.000000
6.769227 -17660.042983 0.000000
0.000000 0.000000 0.000000
-17949.395533 6.504723 0.000000
6.504723 -17941.239823 0.000000
0.000000 0.000000 0.000000
-18254.244620 6.335725 0.000000
6.335725 -18245.455510 0.000000
0.000000 0.000000 0.000000
-18637.336855 6.169989 0.000000
6.169989 -18628.277325 0.000000
0.000000 0.000000 0.000000
-19079.867205 5.984654 0.000000
5.984654 -19070.798885 0.000000
0.000000 0.000000 0.000000
-19694.304660 5.692370 0.000000
5.692370 -19685.427639 0.000000
0.000000 0.000000 0.000000
-20420.200214 5.337511 0.000000
5.337511 -20411.703167 0.000000
0.000000 0.000000 0.000000
-21265.091251 4.895079 0.000000
4.895079 -21257.120752 0.000000
0.000000 0.000000 0.000000
-22271.358016 4.333313 0.000000
4.333313 -22263.963560 0.000000
0.000000 0.000000 0.000000
-23340.549806 3.728160 0.000000
3.728160 -23333.845064 0.000000
0.000000 0.000000 0.000000
-24620.339948 2.938086 0.000000
2.938086 -24614.424136 0.000000
0.000000 0.000000 0.000000
-25908.466476 2.037508 0.000000
2.037508 -25903.246769 0.000000
0.000000 0.000000 0.000000
-27224.677720 0.973572 0.000000
0.973572 -27220.168032 0.000000
0.000000 0.000000 0.000000
-28553.841509 -0.320637 0.000000
-0.320637 -28549.830783 0.000000
0.000000 0.000000 0.000000
-29705.709163 -1.746937 0.000000
-1.746937 -29701.647147 0.000000
0.000000 0.000000 0.000000
-17160.668653 8.746972 0.000000
8.746972 -17157.378079 0.000000
0.000000 0.000000 0.000000
-17637.325741 7.981120 0.000000
7.981120 -17632.900800 0.000000
0.000000 0.000000 0.000000
-18014.241946 7.326208 0.000000
7.326208 -18008.578436 0.000000
0.000000 0.000000 0.000000
-18250.229437 6.882562 0.000000
6.882562 -18243.251714 0.000000
0.000000 0.000000 0.000000
-18455.958286 6.609610 0.000000
6.609610 -18447.769878 0.000000
0.000000 0.000000 0.000000
-18630.466270 6.507008 0.000000
6.507008 -18621.407880 0.000000
0.000000 0.000000 0.000000
-18836.730429 6.457152 0.000000
6.457152 -18827.239438 0.000000
0.000000 0.000000 0.000000
-19211.569690 6.332783 0.000000
6.332783 -19202.019198 0.000000
0.000000 0.000000 0.000000
-19722.029104 6.113903 0.000000
6.113903 -19712.568415 0.000000
0.000000 0.000000 0.000000
-20345.473988 5.856339 0.000000
5.856339 -20336.291921 0.000000
0.000000 0.000000 0.000000
-21148.847503 5.502940 0.000000
5.502940 -21140.100458 0.000000
0.000000 0.000000 0.000000
-22127.960796 5.056671 0.000000
5.056671 -22119.702271 0.000000
0.000000 0.000000 0.000000
-23210.166615 4.571939 0.000000
4.571939 -23202.485318 0.000000
0.000000 0.000000 0.000000
-24453.174296 4.000265 0.000000
4.000265 -24446.213446 0.000000
0.000000 0.000000 0.000000
-25882.317991 3.268329 0.000000
3.268329 -25876.198826 0.000000
0.000000 0.000000 0.000000
-27340.126923 2.440388 0.000000
2.440388 -27334.893408 0.000000
0.000000 0.000000 0.000000
-28864.002531 1.408744 0.000000
1.408744 -28859.672944 0.000000
0.000000 0.000000 0.000000
-30487.236768 0.081364 0.000000
0.081364 -30483.604192 0.000000
0.000000 0.000000 0.000000
-31934.539012 -1.505724 0.000000
-1.505724 -31930.965934 0.000000
0.000000 0.000000 0.000000
-18448.148618 8.264298 0.000000
8.264298 -18444.621656 0.000000
0.000000 0.000000 0.000000
-18807.286631 7.475904 0.000000
7.475904 -18802.415039 0.000000
0.000000 0.000000 0.000000
-18996.203292 6.918754 0.000000
6.918754 -18989.686650 0.000000
0.000000 0.000000 0.000000
-19104.372819 6.624929 0.000000
6.624929 -19096.312547 0.000000
0.000000 0.000000 0.000000
-19064.915234 6.599843 0.000000
6.599843 -19055.672505 0.000000
0.000000 0.000000 0.000000
-19091.738948 6.629592 0.000000
6.629592 -19081.949562 0.000000
0.000000 0.000000 0.000000
-19312.507295 6.566101 0.000000
6.566101 -19302.521953 0.000000
0.000000 0.000000 0.000000
-19745.000994 6.397422 0.000000
6.397422 -19735.058924 0.000000
0.000000 0.000000 0.000000
-20261.921668 6.209337 0.000000
6.209337 -20252.102729 0.000000
0.000000 0.000000 0.000000
-20997.685953 5.925057 0.000000
5.925057 -20988.132031 0.000000
0.000000 0.000000 0.000000
-21943.796198 5.568264 0.000000
5.568264 -21934.615523 0.000000
0.000000 0.000000 0.000000
-23000.476406 5.183383 0.000000
5.183383 -22991.683791 0.000000
0.000000 0.000000 0.000000
-24166.744750 4.779675 0.000000
4.779675 -24158.493864 0.000000
0.000000 0.000000 0.000000
-25613.126394 4.243588 0.000000
4.243588 -25605.657765 0.000000
0.000000 0.000000 0.000000
-27184.340074 3.636257 0.000000
3.636257 -27177.700528 0.000000
0.000000 0.000000 0.000000
-28877.484075 2.922651 0.000000
2.922651 -28871.929929 0.000000
0.000000 0.000000 0.000000
-30782.461492 1.937765 0.000000
1.937765 -30777.912163 0.000000
0.000000 0.000000 0.000000
-32816.980213 0.636002 0.000000
0.636002 -32813.408318 0.000000
0.000000 0.000000 0.000000
-34751.574560 -1.098665 0.000000
-1.098665 -34748.399526 0.000000
0.000000 0.000000 0.000000
-19730.536213 7.616612 0.000000
7.616612 -19726.804742 0.000000
0.000000 0.000000 0.000000
-19943.000634 6.847076 0.000000
6.847076 -19937.254502 0.000000
0.000000 0.000000 0.000000
-19843.543717 6.548927 0.000000
6.548927 -19835.777396 0.000000
0.000000 0.000000 0.000000
-19577.505491 6.572278 0.000000
6.572278 -19568.269579 0.000000
0.000000 0.000000 0.000000
-19355.945703 6.698508 0.000000
6.698508 -19346.019893 0.000000
0.000000 0.000000 0.000000
-19403.733478 6.676273 0.000000
6.676273 -19393.477810 0.000000
0.000000 0.000000 0.000000
-19711.079085 6.549723 0.000000
6.549723 -19700.743501 0.000000
0.000000 0.000000 0.000000
-20177.726326 6.367201 0.000000
6.367201 -20167.377600 0.000000
0.000000 0.000000 0.000000
-20824.028365 6.136391 0.000000
6.136391 -20813.735789 0.000000
0.000000 0.000000 0.000000
-21642.504070 5.884178 0.000000
5.884178 -21632.344292 0.000000
0.000000 0.000000 0.000000
-22726.753111 5.548985 0.000000
5.548985 -22716.820253 0.000000
0.000000 0.000000 0.000000
-23847.160333 5.270327 0.000000
5.270327 -23837.579113 0.000000
0.000000 0.000000 0.000000
-25139.309708 4.942627 0.000000
4.942627 -25130.233159 0.000000
0.000000 0.000000 0.000000
-26832.504752 4.442294 0.000000
4.442294 -26824.091667 0.000000
0.000000 0.000000 0.000000
-28466.009964 4.092291 0.000000
4.092291 -28458.417524 0.000000
0.000000 0.000000 0.000000
-30658.616489 3.431997 0.000000
3.431997 -30652.128175 0.000000
0.000000 0.000000 0.000000
-32928.473780 2.641405 0.000000
2.641405 -32923.206061 0.000000
0.000000 0.000000 0.000000
-35533.940608 1.403377 0.000000
1.403377 -35530.038372 0.000000
0.000000 0.000000 0.000000
-38244.071610 -0.457748 0.000000
-0.457748 -38241.231070 0.000000
0.000000 0.000000 0.000000
-21120.003248 6.667915 0.000000
6.667915 -21115.559222 0.000000
0.000000 0.000000 0.000000
-20680.909434 6.301753 0.000000
6.301753 -20673.769832 0.000000
0.000000 0.000000 0.000000
-20136.073580 6.365190 0.000000
6.365190 -20127.176720 0.000000
0.000000 0.000000 0.000000
-19534.800805 6.617222 0.000000
6.617222 -19525.002409 0.000000
0.000000 0.000000 0.000000
-19463.698107 6.571130 0.000000
6.571130 -19453.492701 0.000000
0.000000 0.000000 0.000000
-19572.816465 6.470188 0.000000
6.470188 -19562.279335 0.000000
0.000000 0.000000 0.000000
-20017.651304 6.262138 0.000000
6.262138 -20006.936439 0.000000
0.000000 0.000000 0.000000
-20548.529790 6.092805 0.000000
6.092805 -20537.611628 0.000000
0.000000 0.000000 0.000000
-21293.129291 5.892840 0.000000
5.892840 -21282.085092 0.000000
0.000000 0.000000 0.000000
-22326.606606 5.600757 0.000000
5.600757 -22315.543356 0.000000
0.000000 0.000000 0.000000
-23363.431028 5.434299 0.000000
5.434299 -23352.453189 0.000000
0.000000 0.000000 0.000000
-24602.769705 5.243089 0.000000
5.243089 -24592.051084 0.000000
0.000000 0.000000 0.000000
-26242.506628 4.902280 0.000000
4.902280 -26232.126731 0.000000
0.000000 0.000000 0.000000
-27936.060277 4.682027 0.000000
4.682027 -27926.100225 0.000000
0.000000 0.000000 0.000000
-29976.276278 4.413318 0.000000
4.413318 -29967.031805 0.000000
0.000000 0.000000 0.000000
-32468.437631 4.007967 0.000000
4.007967 -32460.211676 0.000000
0.000000 0.000000 0.000000
-35324.150859 3.415418 0.000000
3.415418 -35317.402318 0.000000
0.000000 0.000000 0.000000
-38658.130054 2.425083 0.000000
2.425083 -38653.137767 0.000000
0.000000 0.000000 0.000000
-42691.624176 0.552052 0.000000
0.552052 -42688.513188 0.000000
0.000000 0.000000 0.000000
-21790.132704 5.860498 0.000000
5.860498 -21784.363926 0.000000
0.000000 0.000000 0.000000
-20638.497220 5.982697 0.000000
5.982697 -20630.393313 0.000000
0.000000 0.000000 0.000000
-19615.671776 6.302549 0.000000
6.302549 -19606.436009 0.000000
0.000000 0.000000 0.000000
-19367.407167 6.205585 0.000000
6.205585 -19357.610125 0.000000
0.000000 0.000000 0.000000
-19374.508191 6.051477 0.000000
6.051477 -19364.102457 0.000000
0.000000 0.000000 0.000000
-19680.306831 5.862414 0.000000
5.862414 -19669.337357 0.000000
0.000000 0.000000 0.000000
-20181.606792 5.723768 0.000000
5.723768 -20170.169801 0.000000
0.000000 0.000000 0.000000
-20868.830555 5.572446 0.000000
5.572446 -20857.005315 0.000000
0.000000 0.000000 0.000000
-21783.189171 5.366964 0.000000
5.366964 -21771.065692 0.000000
0.000000 0.000000 0.000000
-22772.305778 5.238117 0.000000
5.238117 -22759.963917 0.000000
0.000000 0.000000 0.000000
-23942.776467 5.143483 0.000000
5.143483 -23930.398401 0.000000
0.000000 0.000000 0.000000
-25446.511420 4.978219 0.000000
4.978219 -25434.131275 0.000000
0.000000 0.000000 0.000000
-27245.443240 4.761874 0.000000
4.761874 -27233.104980 0.000000
0.000000 0.000000 0.000000
-28969.343132 4.769020 0.000000
4.769020 -28957.196906 0.000000
0.000000 0.000000 0.000000
-31427.364574 4.519991 0.000000
4.519991 -31415.727817 0.000000
0.000000 0.000000 0.000000
-34103.339926 4.448586 0.000000
4.448586 -34092.561363 0.000000
0.000000 0.000000 0.000000
-37823.834793 4.108191 0.000000
4.108191 -37814.326227 0.000000
0.000000 0.000000 0.000000
-42430.691812 3.598814 0.000000
3.598814 -42422.940220 0.000000
0.000000 0.000000 0.000000
-48779.558084 2.168169 0.000000
2.168169 -48774.255473 0.000000
0.000000 0.000000 0.000000
