# vtk DataFile Version 2.0
cook_membrance_rkgsi_mix
ASCII
DATASET POLYDATA
POINTS 66 float
0.000000 0.000000 0.000000
48.000000 44.000000 0.000000
48.000000 60.000000 0.000000
0.000000 44.000000 0.000000
5.920209 5.426858 0.000000
11.558504 10.595295 0.000000
16.928308 15.517615 0.000000
22.042407 20.205540 0.000000
26.912978 24.670230 0.000000
31.551617 28.922315 0.000000
35.969368 32.971920 0.000000
40.176750 36.828687 0.000000
44.183780 40.501799 0.000000
48.000000 47.200000 0.000000
48.000000 50.400000 0.000000
48.000000 53.600000 0.000000
48.000000 56.800000 0.000000
44.183780 58.727927 0.000000
40.176750 57.392250 0.000000
35.969368 55.989789 0.000000
31.551617 54.517206 0.000000
26.912978 52.970993 0.000000
22.042407 51.347469 0.000000
16.928308 49.642769 0.000000
11.558504 47.852835 0.000000
5.920209 45.973403 0.000000
0.000000 35.200000 0.000000
0.000000 26.400000 0.000000
0.000000 17.600000 0.000000
0.000000 8.800000 0.000000
5.920209 13.536167 0.000000
5.920209 21.645476 0.000000
5.920209 29.754785 0.000000
5.920209 37.864094 0.000000
11.558504 18.046803 0.000000
11.558504 25.498311 0.000000
11.558504 32.949819 0.000000
11.558504 40.401327 0.000000
16.928308 22.342646 0.000000
16.928308 29.167677 0.000000
16.928308 35.992708 0.000000
16.928308 42.817738 0.000000
22.042407 26.433926 0.000000
22.042407 32.662311 0.000000
22.042407 38.890697 0.000000
22.042407 45.119083 0.000000
26.912978 30.330382 0.000000
26.912978 35.990535 0.000000
26.912978 41.650687 0.000000
26.912978 47.310840 0.000000
31.551617 34.041293 0.000000
31.551617 39.160271 0.000000
31.551617 44.279249 0.000000
31.551617 49.398227 0.000000
35.969368 37.575494 0.000000
35.969368 42.179068 0.000000
35.969368 46.782642 0.000000
35.969368 51.386215 0.000000
40.176750 40.941400 0.000000
40.176750 45.054112 0.000000
40.176750 49.166825 0.000000
40.176750 53.279537 0.000000
44.183780 44.147024 0.000000
44.183780 47.792250 0.000000
44.183780 51.437476 0.000000
44.183780 55.082701 0.000000
POLYGONS 100 400
3 0 4 29
3 29 4 30
3 29 30 28
3 28 30 31
3 28 31 27
3 27 31 32
3 27 32 26
3 26 32 33
3 26 33 3
3 3 33 25
3 4 5 30
3 30 5 34
3 30 34 31
3 31 34 35
3 31 35 32
3 32 35 36
3 32 36 33
3 33 36 37
3 33 37 25
3 25 37 24
3 5 6 34
3 34 6 38
3 34 38 35
3 35 38 39
3 35 39 36
3 36 39 40
3 36 40 37
3 37 40 41
3 37 41 24
3 24 41 23
3 6 7 38
3 38 7 42
3 38 42 39
3 39 42 43
3 39 43 40
3 40 43 44
3 40 44 41
3 41 44 45
3 41 45 23
3 23 45 22
3 7 8 42
3 42 8 46
3 42 46 43
3 43 46 47
3 43 47 44
3 44 47 48
3 44 48 45
3 45 48 49
3 45 49 22
3 22 49 21
3 8 9 46
3 46 9 50
3 46 50 47
3 47 50 51
3 47 51 48
3 48 51 52
3 48 52 49
3 49 52 53
3 49 53 21
3 21 53 20
3 9 10 50
3 50 10 54
3 50 54 51
3 51 54 55
3 51 55 52
3 52 55 56
3 52 56 53
3 53 56 57
3 53 57 20
3 20 57 19
3 10 11 54
3 54 11 58
3 54 58 55
3 55 58 59
3 55 59 56
3 56 59 60
3 56 60 57
3 57 60 61
3 57 61 19
3 19 61 18
3 11 12 58
3 58 12 62
3 58 62 59
3 59 62 63
3 59 63 60
3 60 63 64
3 60 64 61
3 61 64 65
3 61 65 18
3 18 65 17
3 12 1 62
3 62 1 13
3 62 13 63
3 63 13 14
3 63 14 64
3 64 14 15
3 64 15 65
3 65 15 16
3 65 16 17
3 17 16 2
POINT_DATA 66
VECTORS U float
-0.000000 0.000000 0.000000
-1.705644 6.430948 0.000000
-5.150419 6.400180 0.000000
-0.000000 0.000000 0.000000
-0.009789 0.317043 0.000000
0.025117 0.638674 0.000000
0.130512 0.967406 0.000000
0.230066 1.436325 0.000000
0.288594 2.021063 0.000000
0.186010 2.758919 0.000000
-0.080737 3.584773 0.000000
-0.493205 4.465676 0.000000
-1.005123 5.419998 0.000000
-2.332516 6.374497 0.000000
-2.908978 6.372139 0.000000
-3.533642 6.412942 0.000000
-4.254699 6.448965 0.000000
-4.541494 5.333239 0.000000
-3.968718 4.413589 0.000000
-3.452941 3.608322 0.000000
-2.957159 2.881762 0.000000
-2.444202 2.187344 0.000000
-1.920070 1.611366 0.000000
-1.360288 1.086186 0.000000
-0.903715 0.751707 0.000000
-0.496970 0.466111 0.000000
0.000000 -0.000000 0.000000
0.000000 -0.000000 0.000000
0.000000 -0.000000 0.000000
-0.000000 0.000000 0.000000
0.006825 0.306408 0.000000
-0.007009 0.271893 0.000000
0.100984 0.122767 0.000000
-0.024977 0.155736 0.000000
0.065792 0.575532 0.000000
0.097158 0.478622 0.000000
0.062456 0.403428 0.000000
-0.277175 0.504784 0.000000
0.165870 0.896391 0.000000
0.124436 0.822363 0.000000
-0.119478 0.823106 0.000000
-0.588970 0.908179 0.000000
0.218782 1.345998 0.000000
0.027159 1.306188 0.000000
-0.381608 1.348319 0.000000
-1.010853 1.460198 0.000000
0.112266 1.972336 0.000000
-0.238815 1.958830 0.000000
-0.741293 1.982143 0.000000
-1.446413 2.051698 0.000000
-0.115259 2.694531 0.000000
-0.587020 2.699760 0.000000
-1.211968 2.743096 0.000000
-1.996688 2.809380 0.000000
-0.517656 3.541273 0.000000
-1.042170 3.519922 0.000000
-1.703365 3.533084 0.000000
-2.506632 3.561252 0.000000
-0.990088 4.431792 0.000000
-1.598824 4.425553 0.000000
-2.286031 4.430734 0.000000
-3.072343 4.435400 0.000000
-1.592869 5.388113 0.000000
-2.227971 5.383736 0.000000
-2.894046 5.393059 0.000000
-3.647885 5.387157 0.000000
TENSORS STRESS float
1377.330478 3.204009 0.000000
3.204009 1376.907958 0.000000
0.000000 0.000000 0.000000
-27651.286630 7.843466 0.000000
7.843466 -27649.650256 0.000000
0.000000 0.000000 0.000000
-43368.111968 2.287988 0.000000
2.287988 -43364.451151 0.000000
0.000000 0.000000 0.000000
-18731.875645 2.380820 0.000000
2.380820 -18724.229501 0.000000
0.000000 0.000000 0.000000
-3353.991595 5.395565 0.000000
5.395565 -3352.971875 0.000000
0.000000 0.000000 0.000000
-2553.048546 6.079021 0.000000
6.079021 -2555.731571 0.000000
0.000000 0.000000 0.000000
-2678.066597 8.197356 0.000000
8.197356 -2680.394831 0.000000
0.000000 0.000000 0.000000
-1848.669222 10.338824 0.000000
10.338824 -1853.751580 0.000000
0.000000 0.000000 0.000000
1979.266230 10.372975 0.000000
10.372975 1976.118178 0.000000
0.000000 0.000000 0.000000
-7799.441549 12.002945 0.000000
12.002945 -7802.566826 0.000000
0.000000 0.000000 0.000000
-12126.218743 10.919735 0.000000
10.919735 -12126.930035 0.000000
0.000000 0.000000 0.000000
-5005.296997 9.348260 0.000000
9.348260 -5005.680696 0.000000
0.000000 0.000000 0.000000
-10129.970773 9.106970 0.000000
9.106970 -10129.597310 0.000000
0.000000 0.000000 0.000000
-28018.590018 6.434664 0.000000
6.434664 -28010.158956 0.000000
0.000000 0.000000 0.000000
-21960.760001 6.132190 0.000000
6.132190 -21949.540045 0.000000
0.000000 0.000000 0.000000
-18541.846321 5.706566 0.000000
5.706566 -18529.793218 0.000000
0.000000 0.000000 0.000000
-21632.717328 4.562542 0.000000
4.562542 -21622.647206 0.000000
0.000000 0.000000 0.000000
-35611.432212 -0.604260 0.000000
-0.604260 -35605.865732 0.000000
0.000000 0.000000 0.000000
-26877.484982 -1.210168 0.000000
-1.210168 -26869.864772 0.000000
0.000000 0.000000 0.000000
-12235.949087 -3.498805 0.000000
-3.498805 -12226.840171 0.000000
0.000000 0.000000 0.000000
-7547.912190 -4.530139 0.000000
-4.530139 -7537.763020 0.000000
0.000000 0.000000 0.000000
-5262.549706 -6.347714 0.000000
-6.347714 -5250.842420 0.000000
0.000000 0.000000 0.000000
-5954.830221 -6.905967 0.000000
-6.905967 -5942.907524 0.000000
0.000000 0.000000 0.000000
-13737.768302 -4.338819 0.000000
-4.338819 -13724.402452 0.000000
0.000000 0.000000 0.000000
3395.031066 -6.408407 0.000000
-6.408407 3408.608925 0.000000
0.000000 0.000000 0.000000
6562.033201 -3.626443 0.000000
-3.626443 6578.929151 0.000000
0.000000 0.000000 0.000000
5519.616829 0.261551 0.000000
0.261551 5517.444988 0.000000
0.000000 0.000000 0.000000
-4598.891230 3.811183 0.000000
3.811183 -4596.923291 0.000000
0.000000 0.000000 0.000000
-1274.352826 4.360467 0.000000
4.360467 -1273.884068 0.000000
0.000000 0.000000 0.000000
3946.827266 3.456594 0.000000
3.456594 3945.355955 0.000000
0.000000 0.000000 0.000000
992.931207 3.997697 0.000000
3.997697 992.144107 0.000000
0.000000 0.000000 0.000000
-1236.041105 3.806743 0.000000
3.806743 -1239.287308 0.000000
0.000000 0.000000 0.000000
-2872.759221 3.675825 0.000000
3.675825 -2876.908741 0.000000
0.000000 0.000000 0.000000
3434.103932 0.085319 0.000000
0.085319 3440.569447 0.000000
0.000000 0.000000 0.000000
4216.293933 4.425791 0.000000
4.425791 4212.305425 0.000000
0.000000 0.000000 0.000000
-2824.952519 5.467446 0.000000
5.467446 -2829.412334 0.000000
0.000000 0.000000 0.000000
-2878.134273 3.275585 0.000000
3.275585 -2875.938895 0.000000
0.000000 0.000000 0.000000
-617.280786 -0.366791 0.000000
-0.366791 -610.422272 0.000000
0.000000 0.000000 0.000000
2093.853284 6.559335 0.000000
6.559335 2089.174003 0.000000
0.000000 0.000000 0.000000
-361.607867 5.304676 0.000000
5.304676 -363.813120 0.000000
0.000000 0.000000 0.000000
-1716.760343 2.524780 0.000000
2.524780 -1713.741009 0.000000
0.000000 0.000000 0.000000
-3778.155598 -0.541060 0.000000
-0.541060 -3769.529026 0.000000
0.000000 0.000000 0.000000
-1527.833252 8.308154 0.000000
8.308154 -1531.247074 0.000000
0.000000 0.000000 0.000000
-1813.591583 5.308097 0.000000
5.308097 -1813.055266 0.000000
0.000000 0.000000 0.000000
-2970.649651 2.536874 0.000000
2.536874 -2966.375662 0.000000
0.000000 0.000000 0.000000
-5138.158136 -1.117187 0.000000
-1.117187 -5129.978701 0.000000
0.000000 0.000000 0.000000
-3034.691826 8.391980 0.000000
8.391980 -3035.806957 0.000000
0.000000 0.000000 0.000000
-3260.332577 5.416813 0.000000
5.416813 -3257.787072 0.000000
0.000000 0.000000 0.000000
-5487.022210 2.480900 0.000000
2.480900 -5481.085484 0.000000
0.000000 0.000000 0.000000
-7592.595676 -1.104322 0.000000
-1.104322 -7583.482127 0.000000
0.000000 0.000000 0.000000
-4451.911665 7.886356 0.000000
7.886356 -4451.243884 0.000000
0.000000 0.000000 0.000000
-7803.418416 5.757422 0.000000
5.757422 -7799.650878 0.000000
0.000000 0.000000 0.000000
-8938.184482 2.650545 0.000000
2.650545 -8931.477890 0.000000
0.000000 0.000000 0.000000
-10074.124945 -0.993708 0.000000
-0.993708 -10065.246810 0.000000
0.000000 0.000000 0.000000
-9771.104537 8.268556 0.000000
8.268556 -9769.177441 0.000000
0.000000 0.000000 0.000000
-9762.103103 5.264155 0.000000
5.264155 -9757.834366 0.000000
0.000000 0.000000 0.000000
-12329.056821 2.801791 0.000000
2.801791 -12322.707421 0.000000
0.000000 0.000000 0.000000
-13622.206556 -0.317233 0.000000
-0.317233 -13615.085390 0.000000
0.000000 0.000000 0.000000
-12468.224295 7.847627 0.000000
7.847627 -12465.592778 0.000000
0.000000 0.000000 0.000000
-14479.047874 5.528332 0.000000
5.528332 -14473.035023 0.000000
0.000000 0.000000 0.000000
-16634.207631 3.717783 0.000000
3.717783 -16626.776235 0.000000
0.000000 0.000000 0.000000
-19498.412765 1.522546 0.000000
1.522546 -19490.978040 0.000000
0.000000 0.000000 0.000000
-15755.689574 6.721962 0.000000
6.721962 -15750.369058 0.000000
0.000000 0.000000 0.000000
-20291.853348 6.171924 0.000000
6.171924 -20283.514678 0.000000
0.000000 0.000000 0.000000
-19167.337549 4.765014 0.000000
4.765014 -19158.712784 0.000000
0.000000 0.000000 0.000000
-22523.436972 2.823991 0.000000
2.823991 -22516.584468 0.000000
0.000000 0.000000 0.000000
