# vtk DataFile Version 2.0
cook_membrance_rkgsi_mix
ASCII
DATASET POLYDATA
POINTS 66 float
0.000000 0.000000 0.000000
48.000000 44.000000 0.000000
48.000000 60.000000 0.000000
0.000000 44.000000 0.000000
5.920209 5.426858 0.000000
11.558504 10.595295 0.000000
16.928308 15.517615 0.000000
22.042407 20.205540 0.000000
26.912978 24.670230 0.000000
31.551617 28.922315 0.000000
35.969368 32.971920 0.000000
40.176750 36.828687 0.000000
44.183780 40.501799 0.000000
48.000000 47.200000 0.000000
48.000000 50.400000 0.000000
48.000000 53.600000 0.000000
48.000000 56.800000 0.000000
44.183780 58.727927 0.000000
40.176750 57.392250 0.000000
35.969368 55.989789 0.000000
31.551617 54.517206 0.000000
26.912978 52.970993 0.000000
22.042407 51.347469 0.000000
16.928308 49.642769 0.000000
11.558504 47.852835 0.000000
5.920209 45.973403 0.000000
0.000000 35.200000 0.000000
0.000000 26.400000 0.000000
0.000000 17.600000 0.000000
0.000000 8.800000 0.000000
5.920209 13.536167 0.000000
5.920209 21.645476 0.000000
5.920209 29.754785 0.000000
5.920209 37.864094 0.000000
11.558504 18.046803 0.000000
11.558504 25.498311 0.000000
11.558504 32.949819 0.000000
11.558504 40.401327 0.000000
16.928308 22.342646 0.000000
16.928308 29.167677 0.000000
16.928308 35.992708 0.000000
16.928308 42.817738 0.000000
22.042407 26.433926 0.000000
22.042407 32.662311 0.000000
22.042407 38.890697 0.000000
22.042407 45.119083 0.000000
26.912978 30.330382 0.000000
26.912978 35.990535 0.000000
26.912978 41.650687 0.000000
26.912978 47.310840 0.000000
31.551617 34.041293 0.000000
31.551617 39.160271 0.000000
31.551617 44.279249 0.000000
31.551617 49.398227 0.000000
35.969368 37.575494 0.000000
35.969368 42.179068 0.000000
35.969368 46.782642 0.000000
35.969368 51.386215 0.000000
40.176750 40.941400 0.000000
40.176750 45.054112 0.000000
40.176750 49.166825 0.000000
40.176750 53.279537 0.000000
44.183780 44.147024 0.000000
44.183780 47.792250 0.000000
44.183780 51.437476 0.000000
44.183780 55.082701 0.000000
POLYGONS 100 400
3 0 4 29
3 29 4 30
3 29 30 28
3 28 30 31
3 28 31 27
3 27 31 32
3 27 32 26
3 26 32 33
3 26 33 3
3 3 33 25
3 4 5 30
3 30 5 34
3 30 34 31
3 31 34 35
3 31 35 32
3 32 35 36
3 32 36 33
3 33 36 37
3 33 37 25
3 25 37 24
3 5 6 34
3 34 6 38
3 34 38 35
3 35 38 39
3 35 39 36
3 36 39 40
3 36 40 37
3 37 40 41
3 37 41 24
3 24 41 23
3 6 7 38
3 38 7 42
3 38 42 39
3 39 42 43
3 39 43 40
3 40 43 44
3 40 44 41
3 41 44 45
3 41 45 23
3 23 45 22
3 7 8 42
3 42 8 46
3 42 46 43
3 43 46 47
3 43 47 44
3 44 47 48
3 44 48 45
3 45 48 49
3 45 49 22
3 22 49 21
3 8 9 46
3 46 9 50
3 46 50 47
3 47 50 51
3 47 51 48
3 48 51 52
3 48 52 49
3 49 52 53
3 49 53 21
3 21 53 20
3 9 10 50
3 50 10 54
3 50 54 51
3 51 54 55
3 51 55 52
3 52 55 56
3 52 56 53
3 53 56 57
3 53 57 20
3 20 57 19
3 10 11 54
3 54 11 58
3 54 58 55
3 55 58 59
3 55 59 56
3 56 59 60
3 56 60 57
3 57 60 61
3 57 61 19
3 19 61 18
3 11 12 58
3 58 12 62
3 58 62 59
3 59 62 63
3 59 63 60
3 60 63 64
3 60 64 61
3 61 64 65
3 61 65 18
3 18 65 17
3 12 1 62
3 62 1 13
3 62 13 63
3 63 13 14
3 63 14 64
3 64 14 15
3 64 15 65
3 65 15 16
3 65 16 17
3 17 16 2
POINT_DATA 66
VECTORS U float
-0.000005 0.000001 0.000000
-1.016959 5.185714 0.000000
-3.810319 5.186367 0.000000
-0.000000 0.000000 0.000000
0.011010 0.240238 0.000000
0.049855 0.493628 0.000000
0.099034 0.753954 0.000000
0.145008 1.082106 0.000000
0.236991 1.485262 0.000000
0.314116 1.993243 0.000000
0.218801 2.647437 0.000000
-0.061310 3.426154 0.000000
-0.476577 4.281246 0.000000
-1.476909 5.190942 0.000000
-1.983369 5.199535 0.000000
-2.545276 5.201784 0.000000
-3.159671 5.196153 0.000000
-3.368495 4.339814 0.000000
-2.903914 3.542642 0.000000
-2.432430 2.817623 0.000000
-1.959607 2.186135 0.000000
-1.488165 1.643886 0.000000
-1.032948 1.177608 0.000000
-0.608520 0.771095 0.000000
-0.236039 0.405217 0.000000
-0.030828 0.133729 0.000000
0.000007 -0.000001 0.000000
0.000016 -0.000003 0.000000
0.000005 -0.000002 0.000000
-0.000013 0.000002 0.000000
0.011143 0.207594 0.000000
0.003746 0.182557 0.000000
0.006915 0.164705 0.000000
0.016900 0.129768 0.000000
0.037384 0.429041 0.000000
0.025496 0.379018 0.000000
0.051146 0.318892 0.000000
0.019034 0.276565 0.000000
0.073833 0.677301 0.000000
0.096028 0.593456 0.000000
0.091354 0.516215 0.000000
-0.120698 0.551504 0.000000
0.160241 0.983936 0.000000
0.168543 0.892169 0.000000
-0.003474 0.871520 0.000000
-0.415512 0.966813 0.000000
0.244616 1.395607 0.000000
0.100323 1.351217 0.000000
-0.250604 1.373443 0.000000
-0.783137 1.464805 0.000000
0.177286 1.946781 0.000000
-0.129254 1.941488 0.000000
-0.589292 1.970495 0.000000
-1.201038 2.046830 0.000000
-0.066452 2.631702 0.000000
-0.467962 2.638765 0.000000
-1.003195 2.666814 0.000000
-1.663423 2.724214 0.000000
-0.432055 3.421199 0.000000
-0.905935 3.432807 0.000000
-1.481129 3.455242 0.000000
-2.150138 3.488891 0.000000
-0.911445 4.283808 0.000000
-1.420150 4.294932 0.000000
-1.999522 4.306853 0.000000
-2.652938 4.319485 0.000000
TENSORS STRESS float
-97.799765 2.852751 0.000000
2.852751 -97.736369 0.000000
0.000000 0.000000 0.000000
-13794.485395 8.977084 0.000000
8.977084 -13788.993457 0.000000
0.000000 0.000000 0.000000
-19342.621243 2.495756 0.000000
2.495756 -19335.602064 0.000000
0.000000 0.000000 0.000000
39.807779 1.089350 0.000000
1.089350 39.936031 0.000000
0.000000 0.000000 0.000000
-123.286546 3.893338 0.000000
3.893338 -124.582111 0.000000
0.000000 0.000000 0.000000
-101.358825 4.310492 0.000000
4.310492 -104.416916 0.000000
0.000000 0.000000 0.000000
-113.930486 4.961259 0.000000
4.961259 -117.660148 0.000000
0.000000 0.000000 0.000000
123.658194 6.777419 0.000000
6.777419 118.836878 0.000000
0.000000 0.000000 0.000000
443.174688 9.210820 0.000000
9.210820 437.468064 0.000000
0.000000 0.000000 0.000000
-667.643329 10.405596 0.000000
10.405596 -671.746437 0.000000
0.000000 0.000000 0.000000
-3505.822795 10.073610 0.000000
10.073610 -3506.960296 0.000000
0.000000 0.000000 0.000000
-6632.323869 10.022908 0.000000
10.022908 -6631.177545 0.000000
0.000000 0.000000 0.000000
-10006.831361 9.475613 0.000000
9.475613 -10003.478752 0.000000
0.000000 0.000000 0.000000
-14904.724881 7.695366 0.000000
7.695366 -14897.869020 0.000000
0.000000 0.000000 0.000000
-16529.503568 6.469443 0.000000
6.469443 -16522.278918 0.000000
0.000000 0.000000 0.000000
-18274.780949 4.995593 0.000000
4.995593 -18267.634841 0.000000
0.000000 0.000000 0.000000
-19449.724884 3.511212 0.000000
3.511212 -19442.883235 0.000000
0.000000 0.000000 0.000000
-16559.115705 0.521181 0.000000
0.521181 -16549.817956 0.000000
0.000000 0.000000 0.000000
-13416.398105 -0.875339 0.000000
-0.875339 -13405.559667 0.000000
0.000000 0.000000 0.000000
-10180.307039 -2.262304 0.000000
-2.262304 -10168.221354 0.000000
0.000000 0.000000 0.000000
-6980.349832 -3.450050 0.000000
-3.450050 -6966.803256 0.000000
0.000000 0.000000 0.000000
-4335.417064 -3.876616 0.000000
-3.876616 -4320.686984 0.000000
0.000000 0.000000 0.000000
-2670.970531 -3.421101 0.000000
-3.421101 -2656.094303 0.000000
0.000000 0.000000 0.000000
-1189.428487 -2.582883 0.000000
-2.582883 -1174.429599 0.000000
0.000000 0.000000 0.000000
-92.215534 -0.714329 0.000000
-0.714329 -80.418197 0.000000
0.000000 0.000000 0.000000
219.428815 1.119890 0.000000
1.119890 223.261185 0.000000
0.000000 0.000000 0.000000
-302.556189 2.043556 0.000000
2.043556 -302.408554 0.000000
0.000000 0.000000 0.000000
-356.659195 2.194263 0.000000
2.194263 -356.512992 0.000000
0.000000 0.000000 0.000000
222.030610 2.166615 0.000000
2.166615 221.949176 0.000000
0.000000 0.000000 0.000000
297.608848 2.421359 0.000000
2.421359 297.513121 0.000000
0.000000 0.000000 0.000000
58.106521 3.241580 0.000000
3.241580 56.869802 0.000000
0.000000 0.000000 0.000000
-81.793615 2.730570 0.000000
2.730570 -82.522985 0.000000
0.000000 0.000000 0.000000
44.956599 2.489491 0.000000
2.489491 44.032819 0.000000
0.000000 0.000000 0.000000
1.640790 1.836789 0.000000
1.836789 0.060917 0.000000
0.000000 0.000000 0.000000
59.397822 3.575702 0.000000
3.575702 56.994096 0.000000
0.000000 0.000000 0.000000
22.739532 3.414760 0.000000
3.414760 20.598189 0.000000
0.000000 0.000000 0.000000
19.970446 2.961883 0.000000
2.961883 16.968208 0.000000
0.000000 0.000000 0.000000
-229.263454 1.559151 0.000000
1.559151 -228.638794 0.000000
0.000000 0.000000 0.000000
35.991325 4.798285 0.000000
4.798285 32.355260 0.000000
0.000000 0.000000 0.000000
286.886886 4.821181 0.000000
4.821181 282.497990 0.000000
0.000000 0.000000 0.000000
-237.092977 3.302152 0.000000
3.302152 -238.909577 0.000000
0.000000 0.000000 0.000000
-1117.168885 0.661563 0.000000
0.661563 -1110.886719 0.000000
0.000000 0.000000 0.000000
268.702048 7.182370 0.000000
7.182370 263.358588 0.000000
0.000000 0.000000 0.000000
-316.900662 5.938804 0.000000
5.938804 -320.365463 0.000000
0.000000 0.000000 0.000000
-1581.589254 3.052743 0.000000
3.052743 -1579.145030 0.000000
0.000000 0.000000 0.000000
-2439.202843 -0.160414 0.000000
-0.160414 -2430.343977 0.000000
0.000000 0.000000 0.000000
-251.134501 8.272973 0.000000
8.272973 -255.192049 0.000000
0.000000 0.000000 0.000000
-2008.231667 5.543560 0.000000
5.543560 -2008.063720 0.000000
0.000000 0.000000 0.000000
-3377.601637 2.550389 0.000000
2.550389 -3373.086426 0.000000
0.000000 0.000000 0.000000
-4159.138879 -0.515067 0.000000
-0.515067 -4150.057663 0.000000
0.000000 0.000000 0.000000
-2466.652402 7.804696 0.000000
7.804696 -2467.132293 0.000000
0.000000 0.000000 0.000000
-4265.634878 5.318430 0.000000
5.318430 -4263.243873 0.000000
0.000000 0.000000 0.000000
-5659.481705 2.584142 0.000000
2.584142 -5654.132180 0.000000
0.000000 0.000000 0.000000
-6695.191408 -0.356796 0.000000
-0.356796 -6685.856975 0.000000
0.000000 0.000000 0.000000
-5095.989386 7.891978 0.000000
7.891978 -5094.086931 0.000000
0.000000 0.000000 0.000000
-6933.149263 5.563176 0.000000
5.563176 -6929.233271 0.000000
0.000000 0.000000 0.000000
-8660.933858 3.033165 0.000000
3.033165 -8654.566373 0.000000
0.000000 0.000000 0.000000
-9804.408166 0.364867 0.000000
0.364867 -9795.351471 0.000000
0.000000 0.000000 0.000000
-8233.425364 7.978897 0.000000
7.978897 -8229.698375 0.000000
0.000000 0.000000 0.000000
-10231.437156 5.786869 0.000000
5.786869 -10226.022813 0.000000
0.000000 0.000000 0.000000
-11872.115551 3.654306 0.000000
3.654306 -11865.219995 0.000000
0.000000 0.000000 0.000000
-13078.728246 1.380019 0.000000
1.380019 -13070.253107 0.000000
0.000000 0.000000 0.000000
-11649.335398 7.676482 0.000000
7.676482 -11643.909876 0.000000
0.000000 0.000000 0.000000
-13366.993566 6.020250 0.000000
6.020250 -13360.543363 0.000000
0.000000 0.000000 0.000000
-14991.327974 4.237693 0.000000
4.237693 -14984.327080 0.000000
0.000000 0.000000 0.000000
-16378.131906 2.270219 0.000000
2.270219 -16370.302429 0.000000
0.000000 0.000000 0.000000
