# vtk DataFile Version 2.0
cook_membrance_rkgsi_mix
ASCII
DATASET POLYDATA
POINTS 121 float
0.000000 0.000000 0.000000
48.000000 44.000000 0.000000
48.000000 60.000000 0.000000
0.000000 44.000000 0.000000
4.800000 4.400000 0.000000
9.600000 8.800000 0.000000
14.400000 13.200000 0.000000
19.200000 17.600000 0.000000
24.000000 22.000000 0.000000
28.800000 26.400000 0.000000
33.600000 30.800000 0.000000
38.400000 35.200000 0.000000
43.200000 39.600000 0.000000
48.000000 45.600000 0.000000
48.000000 47.200000 0.000000
48.000000 48.800000 0.000000
48.000000 50.400000 0.000000
48.000000 52.000000 0.000000
48.000000 53.600000 0.000000
48.000000 55.200000 0.000000
48.000000 56.800000 0.000000
48.000000 58.400000 0.000000
43.200000 58.400000 0.000000
38.400000 56.800000 0.000000
33.600000 55.200000 0.000000
28.800000 53.600000 0.000000
24.000000 52.000000 0.000000
19.200000 50.400000 0.000000
14.400000 48.800000 0.000000
9.600000 47.200000 0.000000
4.800000 45.600000 0.000000
0.000000 39.600000 0.000000
0.000000 35.200000 0.000000
0.000000 30.800000 0.000000
0.000000 26.400000 0.000000
0.000000 22.000000 0.000000
0.000000 17.600000 0.000000
0.000000 13.200000 0.000000
0.000000 8.800000 0.000000
0.000000 4.400000 0.000000
4.800000 8.520000 0.000000
4.800000 12.640000 0.000000
4.800000 16.760000 0.000000
4.800000 20.880000 0.000000
4.800000 25.000000 0.000000
4.800000 29.120000 0.000000
4.800000 33.240000 0.000000
4.800000 37.360000 0.000000
4.800000 41.480000 0.000000
9.600000 12.640000 0.000000
9.600000 16.480000 0.000000
9.600000 20.320000 0.000000
9.600000 24.160000 0.000000
9.600000 28.000000 0.000000
9.600000 31.840000 0.000000
9.600000 35.680000 0.000000
9.600000 39.520000 0.000000
9.600000 43.360000 0.000000
14.400000 16.760000 0.000000
14.400000 20.320000 0.000000
14.400000 23.880000 0.000000
14.400000 27.440000 0.000000
14.400000 31.000000 0.000000
14.400000 34.560000 0.000000
14.400000 38.120000 0.000000
14.400000 41.680000 0.000000
14.400000 45.240000 0.000000
19.200000 20.880000 0.000000
19.200000 24.160000 0.000000
19.200000 27.440000 0.000000
19.200000 30.720000 0.000000
19.200000 34.000000 0.000000
19.200000 37.280000 0.000000
19.200000 40.560000 0.000000
19.200000 43.840000 0.000000
19.200000 47.120000 0.000000
24.000000 25.000000 0.000000
24.000000 28.000000 0.000000
24.000000 31.000000 0.000000
24.000000 34.000000 0.000000
24.000000 37.000000 0.000000
24.000000 40.000000 0.000000
24.000000 43.000000 0.000000
24.000000 46.000000 0.000000
24.000000 49.000000 0.000000
28.800000 29.120000 0.000000
28.800000 31.840000 0.000000
28.800000 34.560000 0.000000
28.800000 37.280000 0.000000
28.800000 40.000000 0.000000
28.800000 42.720000 0.000000
28.800000 45.440000 0.000000
28.800000 48.160000 0.000000
28.800000 50.880000 0.000000
33.600000 33.240000 0.000000
33.600000 35.680000 0.000000
33.600000 38.120000 0.000000
33.600000 40.560000 0.000000
33.600000 43.000000 0.000000
33.600000 45.440000 0.000000
33.600000 47.880000 0.000000
33.600000 50.320000 0.000000
33.600000 52.760000 0.000000
38.400000 37.360000 0.000000
38.400000 39.520000 0.000000
38.400000 41.680000 0.000000
38.400000 43.840000 0.000000
38.400000 46.000000 0.000000
38.400000 48.160000 0.000000
38.400000 50.320000 0.000000
38.400000 52.480000 0.000000
38.400000 54.640000 0.000000
43.200000 41.480000 0.000000
43.200000 43.360000 0.000000
43.200000 45.240000 0.000000
43.200000 47.120000 0.000000
43.200000 49.000000 0.000000
43.200000 50.880000 0.000000
43.200000 52.760000 0.000000
43.200000 54.640000 0.000000
43.200000 56.520000 0.000000
POLYGONS 200 800
3 0 4 39
3 39 4 40
3 39 40 38
3 38 40 41
3 38 41 37
3 37 41 42
3 37 42 36
3 36 42 43
3 36 43 35
3 35 43 44
3 35 44 34
3 34 44 45
3 34 45 33
3 33 45 46
3 33 46 32
3 32 46 47
3 32 47 31
3 31 47 48
3 31 48 3
3 3 48 30
3 4 5 40
3 40 5 49
3 40 49 41
3 41 49 50
3 41 50 42
3 42 50 51
3 42 51 43
3 43 51 52
3 43 52 44
3 44 52 53
3 44 53 45
3 45 53 54
3 45 54 46
3 46 54 55
3 46 55 47
3 47 55 56
3 47 56 48
3 48 56 57
3 48 57 30
3 30 57 29
3 5 6 49
3 49 6 58
3 49 58 50
3 50 58 59
3 50 59 51
3 51 59 60
3 51 60 52
3 52 60 61
3 52 61 53
3 53 61 62
3 53 62 54
3 54 62 63
3 54 63 55
3 55 63 64
3 55 64 56
3 56 64 65
3 56 65 57
3 57 65 66
3 57 66 29
3 29 66 28
3 6 7 58
3 58 7 67
3 58 67 59
3 59 67 68
3 59 68 60
3 60 68 69
3 60 69 61
3 61 69 70
3 61 70 62
3 62 70 71
3 62 71 63
3 63 71 72
3 63 72 64
3 64 72 73
3 64 73 65
3 65 73 74
3 65 74 66
3 66 74 75
3 66 75 28
3 28 75 27
3 7 8 67
3 67 8 76
3 67 76 68
3 68 76 77
3 68 77 69
3 69 77 78
3 69 78 70
3 70 78 79
3 70 79 71
3 71 79 80
3 71 80 72
3 72 80 81
3 72 81 73
3 73 81 82
3 73 82 74
3 74 82 83
3 74 83 75
3 75 83 84
3 75 84 27
3 27 84 26
3 8 9 76
3 76 9 85
3 76 85 77
3 77 85 86
3 77 86 78
3 78 86 87
3 78 87 79
3 79 87 88
3 79 88 80
3 80 88 89
3 80 89 81
3 81 89 90
3 81 90 82
3 82 90 91
3 82 91 83
3 83 91 92
3 83 92 84
3 84 92 93
3 84 93 26
3 26 93 25
3 9 10 85
3 85 10 94
3 85 94 86
3 86 94 95
3 86 95 87
3 87 95 96
3 87 96 88
3 88 96 97
3 88 97 89
3 89 97 98
3 89 98 90
3 90 98 99
3 90 99 91
3 91 99 100
3 91 100 92
3 92 100 101
3 92 101 93
3 93 101 102
3 93 102 25
3 25 102 24
3 10 11 94
3 94 11 103
3 94 103 95
3 95 103 104
3 95 104 96
3 96 104 105
3 96 105 97
3 97 105 106
3 97 106 98
3 98 106 107
3 98 107 99
3 99 107 108
3 99 108 100
3 100 108 109
3 100 109 101
3 101 109 110
3 101 110 102
3 102 110 111
3 102 111 24
3 24 111 23
3 11 12 103
3 103 12 112
3 103 112 104
3 104 112 113
3 104 113 105
3 105 113 114
3 105 114 106
3 106 114 115
3 106 115 107
3 107 115 116
3 107 116 108
3 108 116 117
3 108 117 109
3 109 117 118
3 109 118 110
3 110 118 119
3 110 119 111
3 111 119 120
3 111 120 23
3 23 120 22
3 12 1 112
3 112 1 13
3 112 13 113
3 113 13 14
3 113 14 114
3 114 14 15
3 114 15 115
3 115 15 16
3 115 16 116
3 116 16 17
3 116 17 117
3 117 17 18
3 117 18 118
3 118 18 19
3 118 19 119
3 119 19 20
3 119 20 120
3 120 20 21
3 120 21 22
3 22 21 2
POINT_DATA 121
VECTORS U float
-0.000002 0.000006 0.000000
-1.791287 6.555460 0.000000
-5.380552 6.571081 0.000000
-0.000001 0.000001 0.000000
0.025826 0.336980 0.000000
0.072603 0.546811 0.000000
0.162650 0.829664 0.000000
0.232798 1.176687 0.000000
0.298847 1.659526 0.000000
0.267025 2.325092 0.000000
0.092945 3.155987 0.000000
-0.280800 4.173446 0.000000
-0.891662 5.332447 0.000000
-2.096688 6.559888 0.000000
-2.392561 6.578567 0.000000
-2.694429 6.602726 0.000000
-3.012866 6.622623 0.000000
-3.349157 6.638088 0.000000
-3.705224 6.645670 0.000000
-4.083498 6.645051 0.000000
-4.484802 6.638601 0.000000
-4.914847 6.618333 0.000000
-4.640925 5.212439 0.000000
-3.955164 4.123777 0.000000
-3.331376 3.211782 0.000000
-2.753882 2.423700 0.000000
-2.188751 1.781960 0.000000
-1.676270 1.293132 0.000000
-1.206660 0.904358 0.000000
-0.795095 0.599335 0.000000
-0.279431 0.375993 0.000000
-0.000001 0.000001 0.000000
0.000002 -0.000004 0.000000
0.000004 -0.000007 0.000000
-0.000001 -0.000001 0.000000
-0.000005 0.000008 0.000000
-0.000002 0.000009 0.000000
0.000001 0.000007 0.000000
0.000002 0.000006 0.000000
-0.000002 0.000013 0.000000
0.025735 0.292410 0.000000
0.030071 0.248721 0.000000
0.030460 0.191884 0.000000
0.031383 0.131330 0.000000
0.031209 0.076101 0.000000
0.031589 0.019838 0.000000
0.017861 -0.009759 0.000000
-0.034295 0.042745 0.000000
-0.126283 0.186025 0.000000
0.135658 0.506143 0.000000
0.127799 0.476117 0.000000
0.103386 0.419608 0.000000
0.078805 0.340562 0.000000
0.058301 0.273525 0.000000
0.015816 0.244347 0.000000
-0.056273 0.255067 0.000000
-0.170624 0.291729 0.000000
-0.387972 0.406275 0.000000
0.198043 0.797735 0.000000
0.203217 0.746505 0.000000
0.176954 0.686041 0.000000
0.131416 0.626798 0.000000
0.058953 0.582740 0.000000
-0.045355 0.561879 0.000000
-0.209230 0.585418 0.000000
-0.454041 0.655681 0.000000
-0.791196 0.765372 0.000000
0.274233 1.159735 0.000000
0.259883 1.120483 0.000000
0.204981 1.074520 0.000000
0.107938 1.033733 0.000000
-0.032522 1.008815 0.000000
-0.227662 1.004449 0.000000
-0.482105 1.026999 0.000000
-0.806291 1.081855 0.000000
-1.202618 1.169803 0.000000
0.295224 1.662230 0.000000
0.233290 1.639845 0.000000
0.121243 1.610339 0.000000
-0.039550 1.582465 0.000000
-0.251088 1.568119 0.000000
-0.517844 1.573557 0.000000
-0.840698 1.600019 0.000000
-1.220700 1.644498 0.000000
-1.666806 1.704873 0.000000
0.197773 2.328697 0.000000
0.073717 2.316843 0.000000
-0.101830 2.300201 0.000000
-0.326869 2.287544 0.000000
-0.601220 2.284901 0.000000
-0.922677 2.294776 0.000000
-1.294061 2.314430 0.000000
-1.719309 2.343216 0.000000
-2.204225 2.379007 0.000000
-0.050827 3.160538 0.000000
-0.244388 3.154083 0.000000
-0.484642 3.147046 0.000000
-0.767476 3.145076 0.000000
-1.090425 3.149401 0.000000
-1.453015 3.155775 0.000000
-1.856456 3.164080 0.000000
-2.305251 3.173002 0.000000
-2.798182 3.186756 0.000000
-0.497260 4.163729 0.000000
-0.753283 4.154511 0.000000
-1.044832 4.147580 0.000000
-1.366515 4.144281 0.000000
-1.715215 4.144798 0.000000
-2.093599 4.145088 0.000000
-2.502502 4.143604 0.000000
-2.946122 4.137697 0.000000
-3.429499 4.127177 0.000000
-1.166146 5.317753 0.000000
-1.465162 5.311816 0.000000
-1.782420 5.310209 0.000000
-2.112933 5.311467 0.000000
-2.459980 5.312540 0.000000
-2.828115 5.312642 0.000000
-3.222935 5.307622 0.000000
-3.649392 5.292712 0.000000
-4.116845 5.262904 0.000000
TENSORS STRESS float
1636.762874 6.711382 0.000000
6.711382 1636.103987 0.000000
0.000000 0.000000 0.000000
-18779.721916 5.818724 0.000000
5.818724 -18773.610712 0.000000
0.000000 0.000000 0.000000
-39237.392633 1.841342 0.000000
1.841342 -39235.131315 0.000000
0.000000 0.000000 0.000000
-15749.981929 6.754115 0.000000
6.754115 -15743.627623 0.000000
0.000000 0.000000 0.000000
-2039.246221 5.332561 0.000000
5.332561 -2042.059110 0.000000
0.000000 0.000000 0.000000
-6377.816420 6.727354 0.000000
6.727354 -6379.542766 0.000000
0.000000 0.000000 0.000000
-4335.663511 7.397965 0.000000
7.397965 -4336.638490 0.000000
0.000000 0.000000 0.000000
-1375.346190 8.592661 0.000000
8.592661 -1374.832328 0.000000
0.000000 0.000000 0.000000
1582.088609 9.873368 0.000000
9.873368 1584.039725 0.000000
0.000000 0.000000 0.000000
-601.884655 10.820799 0.000000
10.820799 -599.804967 0.000000
0.000000 0.000000 0.000000
-2253.282024 11.175581 0.000000
11.175581 -2250.441099 0.000000
0.000000 0.000000 0.000000
-9279.751598 11.212691 0.000000
11.212691 -9277.462997 0.000000
0.000000 0.000000 0.000000
-15052.029315 9.637719 0.000000
9.637719 -15049.296774 0.000000
0.000000 0.000000 0.000000
-19366.493024 6.665080 0.000000
6.665080 -19356.091589 0.000000
0.000000 0.000000 0.000000
-18883.772939 7.084236 0.000000
7.084236 -18871.601207 0.000000
0.000000 0.000000 0.000000
-19702.585906 7.025562 0.000000
7.025562 -19690.107878 0.000000
0.000000 0.000000 0.000000
-21976.245734 6.597318 0.000000
6.597318 -21963.910602 0.000000
0.000000 0.000000 0.000000
-24226.908179 6.121321 0.000000
6.121321 -24214.792214 0.000000
0.000000 0.000000 0.000000
-27180.188249 5.466671 0.000000
5.466671 -27168.711342 0.000000
0.000000 0.000000 0.000000
-29088.433772 4.760967 0.000000
4.760967 -29077.452251 0.000000
0.000000 0.000000 0.000000
-30567.234454 4.063927 0.000000
4.063927 -30557.306509 0.000000
0.000000 0.000000 0.000000
-33751.346600 3.125784 0.000000
3.125784 -33744.101583 0.000000
0.000000 0.000000 0.000000
-34268.763383 -2.750777 0.000000
-2.750777 -34266.099951 0.000000
0.000000 0.000000 0.000000
-18536.822931 -3.779555 0.000000
-3.779555 -18527.951621 0.000000
0.000000 0.000000 0.000000
-13813.740875 -4.396834 0.000000
-4.396834 -13803.683727 0.000000
0.000000 0.000000 0.000000
-11882.895600 -5.662186 0.000000
-5.662186 -11872.226128 0.000000
0.000000 0.000000 0.000000
-8826.958364 -6.463682 0.000000
-6.463682 -8814.435913 0.000000
0.000000 0.000000 0.000000
-2910.951379 -6.502235 0.000000
-6.502235 -2895.840005 0.000000
0.000000 0.000000 0.000000
-686.295106 -5.609973 0.000000
-5.609973 -672.217744 0.000000
0.000000 0.000000 0.000000
-143.244884 -7.850781 0.000000
-7.850781 -124.717315 0.000000
0.000000 0.000000 0.000000
-6437.488390 -1.278699 0.000000
-1.278699 -6418.209923 0.000000
0.000000 0.000000 0.000000
-6716.149028 1.473241 0.000000
1.473241 -6713.604990 0.000000
0.000000 0.000000 0.000000
1810.695844 -2.022123 0.000000
-2.022123 1809.992057 0.000000
0.000000 0.000000 0.000000
3771.197456 -2.059599 0.000000
-2.059599 3769.792575 0.000000
0.000000 0.000000 0.000000
2646.876916 -0.623749 0.000000
-0.623749 2645.846350 0.000000
0.000000 0.000000 0.000000
1540.004625 0.604610 0.000000
0.604610 1539.393545 0.000000
0.000000 0.000000 0.000000
-80.074174 2.085316 0.000000
2.085316 -80.043687 0.000000
0.000000 0.000000 0.000000
-971.376407 3.891502 0.000000
3.891502 -971.001815 0.000000
0.000000 0.000000 0.000000
291.077128 5.058547 0.000000
5.058547 290.965096 0.000000
0.000000 0.000000 0.000000
1475.323948 5.893144 0.000000
5.893144 1474.740427 0.000000
0.000000 0.000000 0.000000
-365.748982 4.611190 0.000000
4.611190 -368.838584 0.000000
0.000000 0.000000 0.000000
1846.042018 4.203054 0.000000
4.203054 1841.445518 0.000000
0.000000 0.000000 0.000000
56.563380 4.026127 0.000000
4.026127 51.737926 0.000000
0.000000 0.000000 0.000000
-1480.740583 3.604184 0.000000
3.604184 -1484.610777 0.000000
0.000000 0.000000 0.000000
-2601.103882 2.857655 0.000000
2.857655 -2604.323808 0.000000
0.000000 0.000000 0.000000
-3566.571217 2.312033 0.000000
2.312033 -3569.291070 0.000000
0.000000 0.000000 0.000000
-610.811223 1.845578 0.000000
1.845578 -610.319284 0.000000
0.000000 0.000000 0.000000
5654.586576 0.859973 0.000000
0.859973 5660.355021 0.000000
0.000000 0.000000 0.000000
6622.257052 0.224697 0.000000
0.224697 6633.052039 0.000000
0.000000 0.000000 0.000000
3555.398096 5.246295 0.000000
5.246295 3551.466225 0.000000
0.000000 0.000000 0.000000
3681.213969 4.589855 0.000000
4.589855 3676.535780 0.000000
0.000000 0.000000 0.000000
107.465163 4.589683 0.000000
4.589683 101.336233 0.000000
0.000000 0.000000 0.000000
-1912.335161 4.623980 0.000000
4.623980 -1918.085596 0.000000
0.000000 0.000000 0.000000
-1653.176457 4.444696 0.000000
4.444696 -1656.807741 0.000000
0.000000 0.000000 0.000000
-263.257878 3.855539 0.000000
3.855539 -263.536309 0.000000
0.000000 0.000000 0.000000
-1623.267092 2.890996 0.000000
2.890996 -1620.968542 0.000000
0.000000 0.000000 0.000000
-2317.404242 1.076432 0.000000
1.076432 -2310.825478 0.000000
0.000000 0.000000 0.000000
-1858.403813 -2.861086 0.000000
-2.861086 -1844.317692 0.000000
0.000000 0.000000 0.000000
-502.893902 6.362129 0.000000
6.362129 -506.444347 0.000000
0.000000 0.000000 0.000000
1256.163609 5.875345 0.000000
5.875345 1250.526575 0.000000
0.000000 0.000000 0.000000
1302.018651 5.635062 0.000000
5.635062 1295.894568 0.000000
0.000000 0.000000 0.000000
637.988612 5.283288 0.000000
5.283288 633.025773 0.000000
0.000000 0.000000 0.000000
-626.320601 4.499264 0.000000
4.499264 -629.239690 0.000000
0.000000 0.000000 0.000000
-1100.949855 3.273173 0.000000
3.273173 -1100.562553 0.000000
0.000000 0.000000 0.000000
-1806.179169 1.521134 0.000000
1.521134 -1801.157012 0.000000
0.000000 0.000000 0.000000
-3157.142271 -0.748179 0.000000
-0.748179 -3147.583196 0.000000
0.000000 0.000000 0.000000
-2519.835397 -3.428649 0.000000
-3.428649 -2507.532936 0.000000
0.000000 0.000000 0.000000
137.659484 8.047304 0.000000
8.047304 134.576569 0.000000
0.000000 0.000000 0.000000
277.385871 7.360658 0.000000
7.360658 272.923142 0.000000
0.000000 0.000000 0.000000
-295.911776 6.631571 0.000000
6.631571 -300.208832 0.000000
0.000000 0.000000 0.000000
-1084.590409 5.678156 0.000000
5.678156 -1087.507338 0.000000
0.000000 0.000000 0.000000
-2384.507296 4.447626 0.000000
4.447626 -2385.053845 0.000000
0.000000 0.000000 0.000000
-3581.366101 2.769327 0.000000
2.769327 -3579.200708 0.000000
0.000000 0.000000 0.000000
-3551.640313 0.758731 0.000000
0.758731 -3546.462632 0.000000
0.000000 0.000000 0.000000
-3006.694183 -1.491351 0.000000
-1.491351 -2998.516533 0.000000
0.000000 0.000000 0.000000
-2773.156874 -3.751938 0.000000
-3.751938 -2761.784399 0.000000
0.000000 0.000000 0.000000
-328.032607 9.199258 0.000000
9.199258 -329.442308 0.000000
0.000000 0.000000 0.000000
-1823.678382 8.229451 0.000000
8.229451 -1825.914605 0.000000
0.000000 0.000000 0.000000
-3189.869195 7.153433 0.000000
7.153433 -3191.867702 0.000000
0.000000 0.000000 0.000000
-4148.830759 5.839645 0.000000
5.839645 -4149.645215 0.000000
0.000000 0.000000 0.000000
-4192.981407 4.358775 0.000000
4.358775 -4191.797147 0.000000
0.000000 0.000000 0.000000
-4565.773855 2.687625 0.000000
2.687625 -4562.231856 0.000000
0.000000 0.000000 0.000000
-5023.708781 0.948791 0.000000
0.948791 -5017.808745 0.000000
0.000000 0.000000 0.000000
-6066.037906 -1.094667 0.000000
-1.094667 -6058.022321 0.000000
0.000000 0.000000 0.000000
-7182.503285 -3.541292 0.000000
-3.541292 -7172.252192 0.000000
0.000000 0.000000 0.000000
-2253.861804 9.817661 0.000000
9.817661 -2253.623297 0.000000
0.000000 0.000000 0.000000
-3993.723480 8.586445 0.000000
8.586445 -3993.978932 0.000000
0.000000 0.000000 0.000000
-5378.233119 7.299008 0.000000
7.299008 -5377.976976 0.000000
0.000000 0.000000 0.000000
-6295.172452 5.848247 0.000000
5.848247 -6293.615822 0.000000
0.000000 0.000000 0.000000
-6901.282105 4.356601 0.000000
4.356601 -6898.091942 0.000000
0.000000 0.000000 0.000000
-7742.549583 2.803803 0.000000
2.803803 -7737.669292 0.000000
0.000000 0.000000 0.000000
-9191.536498 1.020880 0.000000
1.020880 -9184.989779 0.000000
0.000000 0.000000 0.000000
-10696.039494 -1.004334 0.000000
-1.004334 -10687.931266 0.000000
0.000000 0.000000 0.000000
-12210.642467 -3.320918 0.000000
-3.320918 -12201.095289 0.000000
0.000000 0.000000 0.000000
-5121.737577 9.926608 0.000000
9.926608 -5120.070152 0.000000
0.000000 0.000000 0.000000
-7001.942809 8.470655 0.000000
8.470655 -7000.228713 0.000000
0.000000 0.000000 0.000000
-8118.730181 7.024221 0.000000
7.024221 -8116.138057 0.000000
0.000000 0.000000 0.000000
-9167.460566 5.586399 0.000000
5.586399 -9163.582782 0.000000
0.000000 0.000000 0.000000
-10732.571810 4.129707 0.000000
4.129707 -10727.523542 0.000000
0.000000 0.000000 0.000000
-12344.391072 2.671965 0.000000
2.671965 -12338.459366 0.000000
0.000000 0.000000 0.000000
-13931.476300 1.022775 0.000000
1.022775 -13924.819262 0.000000
0.000000 0.000000 0.000000
-14882.139535 -0.743660 0.000000
-0.743660 -14874.773343 0.000000
0.000000 0.000000 0.000000
-14987.403908 -2.616083 0.000000
-2.616083 -14979.132026 0.000000
0.000000 0.000000 0.000000
-10486.092054 9.578242 0.000000
9.578242 -10483.315840 0.000000
0.000000 0.000000 0.000000
-11713.842289 8.048857 0.000000
8.048857 -11710.443798 0.000000
0.000000 0.000000 0.000000
-12772.044379 6.762012 0.000000
6.762012 -12767.673645 0.000000
0.000000 0.000000 0.000000
-13882.032296 5.667713 0.000000
5.667713 -13876.686773 0.000000
0.000000 0.000000 0.000000
-14969.710289 4.606895 0.000000
4.606895 -14963.571408 0.000000
0.000000 0.000000 0.000000
-16133.499413 3.437384 0.000000
3.437384 -16127.067029 0.000000
0.000000 0.000000 0.000000
-17166.545199 2.146778 0.000000
2.146778 -17160.228496 0.000000
0.000000 0.000000 0.000000
-18335.919204 0.656095 0.000000
0.656095 -18329.849254 0.000000
0.000000 0.000000 0.000000
-19355.961759 -1.217049 0.000000
-1.217049 -19349.772345 0.000000
0.000000 0.000000 0.000000
-15860.833305 8.114127 0.000000
8.114127 -15856.160851 0.000000
0.000000 0.000000 0.000000
-17210.361661 7.089129 0.000000
7.089129 -17204.046944 0.000000
0.000000 0.000000 0.000000
-18379.060819 6.496641 0.000000
6.496641 -18371.638842 0.000000
0.000000 0.000000 0.000000
-19163.856869 6.035638 0.000000
6.035638 -19155.975151 0.000000
0.000000 0.000000 0.000000
-19746.492657 5.446912 0.000000
5.446912 -19738.426260 0.000000
0.000000 0.000000 0.000000
-20794.971833 4.606540 0.000000
4.606540 -20786.914578 0.000000
0.000000 0.000000 0.000000
-22914.072777 3.537485 0.000000
3.537485 -22906.468467 0.000000
0.000000 0.000000 0.000000
-25980.548173 2.131523 0.000000
2.131523 -25973.865356 0.000000
0.000000 0.000000 0.000000
-29603.219794 0.199713 0.000000
0.199713 -29597.951214 0.000000
0.000000 0.000000 0.000000
