# vtk DataFile Version 2.0
cook_membrance_rkgsi_mix
ASCII
DATASET POLYDATA
POINTS 66 float
0.000000 0.000000 0.000000
48.000000 44.000000 0.000000
48.000000 60.000000 0.000000
0.000000 44.000000 0.000000
5.920209 5.426858 0.000000
11.558504 10.595295 0.000000
16.928308 15.517615 0.000000
22.042407 20.205540 0.000000
26.912978 24.670230 0.000000
31.551617 28.922315 0.000000
35.969368 32.971920 0.000000
40.176750 36.828687 0.000000
44.183780 40.501799 0.000000
48.000000 47.200000 0.000000
48.000000 50.400000 0.000000
48.000000 53.600000 0.000000
48.000000 56.800000 0.000000
44.183780 58.727927 0.000000
40.176750 57.392250 0.000000
35.969368 55.989789 0.000000
31.551617 54.517206 0.000000
26.912978 52.970993 0.000000
22.042407 51.347469 0.000000
16.928308 49.642769 0.000000
11.558504 47.852835 0.000000
5.920209 45.973403 0.000000
0.000000 35.200000 0.000000
0.000000 26.400000 0.000000
0.000000 17.600000 0.000000
0.000000 8.800000 0.000000
5.920209 13.536167 0.000000
5.920209 21.645476 0.000000
5.920209 29.754785 0.000000
5.920209 37.864094 0.000000
11.558504 18.046803 0.000000
11.558504 25.498311 0.000000
11.558504 32.949819 0.000000
11.558504 40.401327 0.000000
16.928308 22.342646 0.000000
16.928308 29.167677 0.000000
16.928308 35.992708 0.000000
16.928308 42.817738 0.000000
22.042407 26.433926 0.000000
22.042407 32.662311 0.000000
22.042407 38.890697 0.000000
22.042407 45.119083 0.000000
26.912978 30.330382 0.000000
26.912978 35.990535 0.000000
26.912978 41.650687 0.000000
26.912978 47.310840 0.000000
31.551617 34.041293 0.000000
31.551617 39.160271 0.000000
31.551617 44.279249 0.000000
31.551617 49.398227 0.000000
35.969368 37.575494 0.000000
35.969368 42.179068 0.000000
35.969368 46.782642 0.000000
35.969368 51.386215 0.000000
40.176750 40.941400 0.000000
40.176750 45.054112 0.000000
40.176750 49.166825 0.000000
40.176750 53.279537 0.000000
44.183780 44.147024 0.000000
44.183780 47.792250 0.000000
44.183780 51.437476 0.000000
44.183780 55.082701 0.000000
POLYGONS 100 400
3 0 4 29
3 29 4 30
3 29 30 28
3 28 30 31
3 28 31 27
3 27 31 32
3 27 32 26
3 26 32 33
3 26 33 3
3 3 33 25
3 4 5 30
3 30 5 34
3 30 34 31
3 31 34 35
3 31 35 32
3 32 35 36
3 32 36 33
3 33 36 37
3 33 37 25
3 25 37 24
3 5 6 34
3 34 6 38
3 34 38 35
3 35 38 39
3 35 39 36
3 36 39 40
3 36 40 37
3 37 40 41
3 37 41 24
3 24 41 23
3 6 7 38
3 38 7 42
3 38 42 39
3 39 42 43
3 39 43 40
3 40 43 44
3 40 44 41
3 41 44 45
3 41 45 23
3 23 45 22
3 7 8 42
3 42 8 46
3 42 46 43
3 43 46 47
3 43 47 44
3 44 47 48
3 44 48 45
3 45 48 49
3 45 49 22
3 22 49 21
3 8 9 46
3 46 9 50
3 46 50 47
3 47 50 51
3 47 51 48
3 48 51 52
3 48 52 49
3 49 52 53
3 49 53 21
3 21 53 20
3 9 10 50
3 50 10 54
3 50 54 51
3 51 54 55
3 51 55 52
3 52 55 56
3 52 56 53
3 53 56 57
3 53 57 20
3 20 57 19
3 10 11 54
3 54 11 58
3 54 58 55
3 55 58 59
3 55 59 56
3 56 59 60
3 56 60 57
3 57 60 61
3 57 61 19
3 19 61 18
3 11 12 58
3 58 12 62
3 58 62 59
3 59 62 63
3 59 63 60
3 60 63 64
3 60 64 61
3 61 64 65
3 61 65 18
3 18 65 17
3 12 1 62
3 62 1 13
3 62 13 63
3 63 13 14
3 63 14 64
3 64 14 15
3 64 15 65
3 65 15 16
3 65 16 17
3 17 16 2
POINT_DATA 66
VECTORS U float
-0.000093 0.039559 0.000000
-0.000315 0.076040 0.000000
-0.000280 0.040580 0.000000
-0.000051 0.076787 0.000000
0.000162 0.042241 0.000000
-0.000877 0.081757 0.000000
-0.000279 0.044521 0.000000
0.001573 0.079894 0.000000
0.000849 0.039697 0.000000
0.002408 0.057836 0.000000
0.006730 0.234205 0.000000
0.009615 0.239866 0.000000
0.004876 0.205142 0.000000
-0.007368 0.224088 0.000000
-0.010092 0.204562 0.000000
-0.002798 0.236932 0.000000
0.005835 0.213295 0.000000
0.028986 0.204818 0.000000
0.021011 0.180449 0.000000
-0.033854 0.232210 0.000000
0.049567 0.463511 0.000000
0.024362 0.457088 0.000000
0.004155 0.398819 0.000000
-0.013583 0.431124 0.000000
-0.005723 0.382259 0.000000
0.057995 0.367261 0.000000
0.055149 0.321419 0.000000
-0.008919 0.351762 0.000000
-0.043876 0.342776 0.000000
-0.253447 0.522186 0.000000
0.086823 0.807087 0.000000
0.023417 0.810549 0.000000
0.016984 0.724283 0.000000
0.107346 0.701164 0.000000
0.108609 0.614197 0.000000
0.073677 0.609452 0.000000
0.025346 0.551669 0.000000
-0.182405 0.652255 0.000000
-0.252706 0.640812 0.000000
-0.662822 0.862203 0.000000
0.086538 1.174831 0.000000
0.174115 1.161764 0.000000
0.183037 1.065057 0.000000
0.188796 1.063122 0.000000
0.143496 0.968874 0.000000
-0.054568 1.025669 0.000000
-0.130544 0.951289 0.000000
-0.446432 1.073480 0.000000
-0.566395 1.039564 0.000000
-1.154260 1.250574 0.000000
0.219337 1.535119 0.000000
0.261904 1.604039 0.000000
0.238832 1.506896 0.000000
0.073691 1.579923 0.000000
0.008354 1.476833 0.000000
-0.273885 1.569995 0.000000
-0.373672 1.480117 0.000000
-0.826307 1.632809 0.000000
-0.986736 1.571592 0.000000
-1.643139 1.759156 0.000000
0.254998 2.108183 0.000000
0.139212 2.225389 0.000000
0.095775 2.112510 0.000000
-0.152815 2.219753 0.000000
-0.231285 2.106758 0.000000
-0.624980 2.238848 0.000000
-0.748306 2.136560 0.000000
-1.284189 2.293754 0.000000
-1.456418 2.204277 0.000000
-2.123030 2.360244 0.000000
0.121317 2.838032 0.000000
-0.106457 2.957399 0.000000
-0.165319 2.830379 0.000000
-0.519537 2.970189 0.000000
-0.612943 2.847747 0.000000
-1.081301 3.000011 0.000000
-1.208099 2.880238 0.000000
-1.761543 3.029155 0.000000
-1.932437 2.911436 0.000000
-2.616915 3.046435 0.000000
-0.161824 3.654966 0.000000
-0.512675 3.790751 0.000000
-0.582879 3.651611 0.000000
-1.015914 3.815544 0.000000
-1.105155 3.680841 0.000000
-1.591002 3.848655 0.000000
-1.710619 3.710277 0.000000
-2.271236 3.868428 0.000000
-2.436592 3.723115 0.000000
-3.134325 3.847644 0.000000
-0.638648 4.548649 0.000000
-1.072519 4.701870 0.000000
-1.135795 4.558025 0.000000
-1.586645 4.743490 0.000000
-1.665300 4.602000 0.000000
-2.163529 4.790454 0.000000
-2.268550 4.641979 0.000000
-2.835086 4.814125 0.000000
-2.988520 4.650022 0.000000
-3.665839 4.775948 0.000000
TENSORS STRESS float
285.919874 8.748015 0.000000
8.748015 285.689997 0.000000
0.000000 0.000000 0.000000
-111.971273 7.509105 0.000000
7.509105 -113.080396 0.000000
0.000000 0.000000 0.000000
-38.482044 8.320106 0.000000
8.320106 -38.660526 0.000000
0.000000 0.000000 0.000000
123.161667 6.291895 0.000000
6.291895 122.947455 0.000000
0.000000 0.000000 0.000000
35.622915 8.293340 0.000000
8.293340 36.134504 0.000000
0.000000 0.000000 0.000000
-211.800299 6.689046 0.000000
6.689046 -210.234131 0.000000
0.000000 0.000000 0.000000
-312.153047 9.074481 0.000000
9.074481 -312.094829 0.000000
0.000000 0.000000 0.000000
92.398954 6.920465 0.000000
6.920465 89.788039 0.000000
0.000000 0.000000 0.000000
160.202742 7.469890 0.000000
7.469890 157.754708 0.000000
0.000000 0.000000 0.000000
-60.954408 5.506423 0.000000
5.506423 -61.608771 0.000000
0.000000 0.000000 0.000000
37.066933 9.058356 0.000000
9.058356 32.555272 0.000000
0.000000 0.000000 0.000000
-179.468200 9.685443 0.000000
9.685443 -186.120652 0.000000
0.000000 0.000000 0.000000
84.386820 6.378169 0.000000
6.378169 82.336684 0.000000
0.000000 0.000000 0.000000
-101.954311 7.321508 0.000000
7.321508 -101.750319 0.000000
0.000000 0.000000 0.000000
-131.913594 6.382400 0.000000
6.382400 -130.150016 0.000000
0.000000 0.000000 0.000000
114.120697 8.135185 0.000000
8.135185 111.109318 0.000000
0.000000 0.000000 0.000000
344.898070 5.876129 0.000000
5.876129 340.278084 0.000000
0.000000 0.000000 0.000000
128.500064 4.530258 0.000000
4.530258 125.577195 0.000000
0.000000 0.000000 0.000000
-474.413234 3.930132 0.000000
3.930132 -471.254837 0.000000
0.000000 0.000000 0.000000
-455.028640 3.859181 0.000000
3.859181 -436.860029 0.000000
0.000000 0.000000 0.000000
-278.200271 14.731066 0.000000
14.731066 -290.780056 0.000000
0.000000 0.000000 0.000000
-735.345399 14.393848 0.000000
14.393848 -744.417120 0.000000
0.000000 0.000000 0.000000
-313.583890 12.009253 0.000000
12.009253 -316.592852 0.000000
0.000000 0.000000 0.000000
619.060415 16.064165 0.000000
16.064165 610.495604 0.000000
0.000000 0.000000 0.000000
697.492654 12.777003 0.000000
12.777003 688.281282 0.000000
0.000000 0.000000 0.000000
185.102348 11.872161 0.000000
11.872161 173.796977 0.000000
0.000000 0.000000 0.000000
-399.339253 6.153845 0.000000
6.153845 -401.680879 0.000000
0.000000 0.000000 0.000000
-1429.648665 4.366737 0.000000
4.366737 -1420.369470 0.000000
0.000000 0.000000 0.000000
-1035.224741 2.323021 0.000000
2.323021 -1012.920035 0.000000
0.000000 0.000000 0.000000
-1474.474841 -3.142678 0.000000
-3.142678 -1436.183549 0.000000
0.000000 0.000000 0.000000
-1619.886378 16.778195 0.000000
16.778195 -1633.725077 0.000000
0.000000 0.000000 0.000000
225.091444 20.815414 0.000000
20.815414 210.075160 0.000000
0.000000 0.000000 0.000000
1870.154453 21.536149 0.000000
21.536149 1853.671964 0.000000
0.000000 0.000000 0.000000
1687.597819 21.638668 0.000000
21.638668 1668.223776 0.000000
0.000000 0.000000 0.000000
-222.869894 15.283379 0.000000
15.283379 -236.277954 0.000000
0.000000 0.000000 0.000000
-2980.605680 11.591007 0.000000
11.591007 -2984.616947 0.000000
0.000000 0.000000 0.000000
-3050.307836 6.553950 0.000000
6.553950 -3043.033149 0.000000
0.000000 0.000000 0.000000
-4300.287348 4.385026 0.000000
4.385026 -4285.050361 0.000000
0.000000 0.000000 0.000000
-3729.327647 -3.093031 0.000000
-3.093031 -3697.635315 0.000000
0.000000 0.000000 0.000000
-6181.983751 -13.160435 0.000000
-13.160435 -6140.547896 0.000000
0.000000 0.000000 0.000000
1714.623835 22.783987 0.000000
22.783987 1699.844868 0.000000
0.000000 0.000000 0.000000
2409.047624 26.733753 0.000000
26.733753 2395.598438 0.000000
0.000000 0.000000 0.000000
701.876767 23.239924 0.000000
23.239924 686.005874 0.000000
0.000000 0.000000 0.000000
-3462.150886 19.236764 0.000000
19.236764 -3469.986702 0.000000
0.000000 0.000000 0.000000
-4889.445962 14.212910 0.000000
14.212910 -4893.412314 0.000000
0.000000 0.000000 0.000000
-7390.718018 12.638805 0.000000
12.638805 -7389.062456 0.000000
0.000000 0.000000 0.000000
-7119.677699 7.375536 0.000000
7.375536 -7109.330714 0.000000
0.000000 0.000000 0.000000
-10634.541013 3.324612 0.000000
3.324612 -10615.191542 0.000000
0.000000 0.000000 0.000000
-10551.312594 -7.524981 0.000000
-7.524981 -10518.315160 0.000000
0.000000 0.000000 0.000000
-15215.999648 -14.303462 0.000000
-14.303462 -15180.161548 0.000000
0.000000 0.000000 0.000000
1595.308701 29.758484 0.000000
29.758484 1593.104544 0.000000
0.000000 0.000000 0.000000
-2508.426625 27.360031 0.000000
27.360031 -2507.634978 0.000000
0.000000 0.000000 0.000000
-5173.440377 21.679991 0.000000
21.679991 -5175.809784 0.000000
0.000000 0.000000 0.000000
-8702.205167 20.151144 0.000000
20.151144 -8702.016260 0.000000
0.000000 0.000000 0.000000
-9867.663321 15.729704 0.000000
15.729704 -9865.609225 0.000000
0.000000 0.000000 0.000000
-13983.265451 12.960692 0.000000
12.960692 -13974.452306 0.000000
0.000000 0.000000 0.000000
-15103.640515 6.322282 0.000000
6.322282 -15086.488077 0.000000
0.000000 0.000000 0.000000
-20154.603701 1.557369 0.000000
1.557369 -20130.883852 0.000000
0.000000 0.000000 0.000000
-19970.785005 -7.513793 0.000000
-7.513793 -19940.338424 0.000000
0.000000 0.000000 0.000000
-24431.804231 -11.640655 0.000000
-11.640655 -24402.585743 0.000000
0.000000 0.000000 0.000000
-4322.646328 31.214475 0.000000
31.214475 -4319.293284 0.000000
0.000000 0.000000 0.000000
-9328.648824 28.359141 0.000000
28.359141 -9326.033279 0.000000
0.000000 0.000000 0.000000
-11228.570066 23.043952 0.000000
23.043952 -11225.400743 0.000000
0.000000 0.000000 0.000000
-16076.948005 20.384989 0.000000
20.384989 -16069.199321 0.000000
0.000000 0.000000 0.000000
-17864.652272 14.902982 0.000000
14.902982 -17853.829632 0.000000
0.000000 0.000000 0.000000
-23582.283425 11.241446 0.000000
11.241446 -23565.797573 0.000000
0.000000 0.000000 0.000000
-24262.350133 5.113077 0.000000
5.113077 -24241.761898 0.000000
0.000000 0.000000 0.000000
-28878.394812 2.396590 0.000000
2.396590 -28857.001859 0.000000
0.000000 0.000000 0.000000
-28708.070816 -5.805245 0.000000
-5.805245 -28683.535839 0.000000
0.000000 0.000000 0.000000
-34753.634032 -10.300807 0.000000
-10.300807 -34730.197134 0.000000
0.000000 0.000000 0.000000
-13762.717758 31.176424 0.000000
31.176424 -13761.645005 0.000000
0.000000 0.000000 0.000000
-19814.535726 27.298206 0.000000
27.298206 -19808.023345 0.000000
0.000000 0.000000 0.000000
-20508.247068 22.002628 0.000000
22.002628 -20497.287649 0.000000
0.000000 0.000000 0.000000
-27284.784035 18.628779 0.000000
18.628779 -27268.432767 0.000000
0.000000 0.000000 0.000000
-28008.955311 14.048454 0.000000
14.048454 -27991.100737 0.000000
0.000000 0.000000 0.000000
-32823.756851 13.037778 0.000000
13.037778 -32803.721005 0.000000
0.000000 0.000000 0.000000
-33560.346507 7.326574 0.000000
7.326574 -33540.431938 0.000000
0.000000 0.000000 0.000000
-39453.223655 6.044089 0.000000
6.044089 -39432.646719 0.000000
0.000000 0.000000 0.000000
-41060.484818 -3.102132 0.000000
-3.102132 -41039.952540 0.000000
0.000000 0.000000 0.000000
-51129.179797 -8.027193 0.000000
-8.027193 -51110.895878 0.000000
0.000000 0.000000 0.000000
-27508.646945 28.522091 0.000000
28.522091 -27503.296176 0.000000
0.000000 0.000000 0.000000
-33911.900227 24.332801 0.000000
24.332801 -33897.791947 0.000000
0.000000 0.000000 0.000000
-32653.383231 20.822923 0.000000
20.822923 -32634.124939 0.000000
0.000000 0.000000 0.000000
-36822.320611 20.359387 0.000000
20.359387 -36798.235713 0.000000
0.000000 0.000000 0.000000
-37288.220878 17.058231 0.000000
17.058231 -37265.031003 0.000000
0.000000 0.000000 0.000000
-43375.614019 16.378296 0.000000
16.378296 -43349.720782 0.000000
0.000000 0.000000 0.000000
-45009.485273 11.643939 0.000000
11.643939 -44986.328603 0.000000
0.000000 0.000000 0.000000
-53202.745426 10.359335 0.000000
10.359335 -53178.902443 0.000000
0.000000 0.000000 0.000000
-58029.846137 0.808714 0.000000
0.808714 -58011.104267 0.000000
0.000000 0.000000 0.000000
-70533.071757 -2.776505 0.000000
-2.776505 -70518.872950 0.000000
0.000000 0.000000 0.000000
-41276.853539 23.849186 0.000000
23.849186 -41262.974555 0.000000
0.000000 0.000000 0.000000
-42231.946104 21.388382 0.000000
21.388382 -42208.502050 0.000000
0.000000 0.000000 0.000000
-40823.542860 21.213817 0.000000
21.213817 -40795.486281 0.000000
0.000000 0.000000 0.000000
-44530.104875 18.913446 0.000000
18.913446 -44496.454423 0.000000
0.000000 0.000000 0.000000
-46901.648294 18.168827 0.000000
18.168827 -46869.709303 0.000000
0.000000 0.000000 0.000000
-51775.343264 16.562570 0.000000
16.562570 -51740.315343 0.000000
0.000000 0.000000 0.000000
-57088.184152 13.887433 0.000000
13.887433 -57058.399054 0.000000
0.000000 0.000000 0.000000
-65701.237665 10.995166 0.000000
10.995166 -65670.838593 0.000000
0.000000 0.000000 0.000000
-74460.344079 5.137263 0.000000
5.137263 -74440.286519 0.000000
0.000000 0.000000 0.000000
-85564.124387 3.145298 0.000000
3.145298 -85549.353395 0.000000
0.000000 0.000000 0.000000
