# vtk DataFile Version 2.0
cook_membrance_quad_10
ASCII
DATASET POLYDATA
POINTS 66 float
0.000000 0.000000 0.000000
48.000000 44.000000 0.000000
48.000000 60.000000 0.000000
0.000000 44.000000 0.000000
5.920209 5.426858 0.000000
11.558504 10.595295 0.000000
16.928308 15.517615 0.000000
22.042407 20.205540 0.000000
26.912978 24.670230 0.000000
31.551617 28.922315 0.000000
35.969368 32.971920 0.000000
40.176750 36.828687 0.000000
44.183780 40.501799 0.000000
48.000000 47.200000 0.000000
48.000000 50.400000 0.000000
48.000000 53.600000 0.000000
48.000000 56.800000 0.000000
44.183780 58.727927 0.000000
40.176750 57.392250 0.000000
35.969368 55.989789 0.000000
31.551617 54.517206 0.000000
26.912978 52.970993 0.000000
22.042407 51.347469 0.000000
16.928308 49.642769 0.000000
11.558504 47.852835 0.000000
5.920209 45.973403 0.000000
0.000000 35.200000 0.000000
0.000000 26.400000 0.000000
0.000000 17.600000 0.000000
0.000000 8.800000 0.000000
5.775544 13.424437 0.000000
5.736970 21.520543 0.000000
5.731466 29.645074 0.000000
5.763399 37.787112 0.000000
11.376078 17.907821 0.000000
11.313680 25.332095 0.000000
11.304749 32.801184 0.000000
11.357121 40.299829 0.000000
16.740237 22.200243 0.000000
16.670738 28.993257 0.000000
16.660426 35.835117 0.000000
16.718694 42.710822 0.000000
21.858735 26.295201 0.000000
21.789072 32.490948 0.000000
21.778505 38.735154 0.000000
21.836801 45.013687 0.000000
26.736632 30.197316 0.000000
26.669155 35.825676 0.000000
26.658814 41.500774 0.000000
26.715220 47.209273 0.000000
31.383234 33.914277 0.000000
31.318616 39.002752 0.000000
31.308671 44.135915 0.000000
31.362662 49.301115 0.000000
35.808874 37.454442 0.000000
35.747223 42.028896 0.000000
35.737721 46.645961 0.000000
35.789222 51.293608 0.000000
40.026461 40.827977 0.000000
39.969720 44.914175 0.000000
39.961265 49.039816 0.000000
40.008983 53.193498 0.000000
44.065131 44.056992 0.000000
44.025766 47.685481 0.000000
44.020537 51.341705 0.000000
44.054359 55.017253 0.000000
POLYGONS 50 250
4 0 4 30 29
4 29 30 31 28
4 28 31 32 27
4 27 32 33 26
4 26 33 25 3
4 4 5 34 30
4 30 34 35 31
4 31 35 36 32
4 32 36 37 33
4 33 37 24 25
4 5 6 38 34
4 34 38 39 35
4 35 39 40 36
4 36 40 41 37
4 37 41 23 24
4 6 7 42 38
4 38 42 43 39
4 39 43 44 40
4 40 44 45 41
4 41 45 22 23
4 7 8 46 42
4 42 46 47 43
4 43 47 48 44
4 44 48 49 45
4 45 49 21 22
4 8 9 50 46
4 46 50 51 47
4 47 51 52 48
4 48 52 53 49
4 49 53 20 21
4 9 10 54 50
4 50 54 55 51
4 51 55 56 52
4 52 56 57 53
4 53 57 19 20
4 10 11 58 54
4 54 58 59 55
4 55 59 60 56
4 56 60 61 57
4 57 61 18 19
4 11 12 62 58
4 58 62 63 59
4 59 63 64 60
4 60 64 65 61
4 61 65 17 18
4 12 1 13 62
4 62 13 14 63
4 63 14 15 64
4 64 15 16 65
4 65 16 2 17
POINT_DATA 66
VECTORS U float
0.003227 0.075695 0.000000
0.007607 0.062431 0.000000
0.011749 0.037487 0.000000
0.003746 0.009727 0.000000
-0.018420 0.022314 0.000000
0.027613 0.419547 0.000000
0.060534 0.349370 0.000000
0.071959 0.225287 0.000000
0.016592 0.108057 0.000000
-0.154589 0.186400 0.000000
0.100369 0.716946 0.000000
0.171608 0.620934 0.000000
0.136148 0.487271 0.000000
-0.028752 0.438625 0.000000
-0.490544 0.577695 0.000000
0.219409 1.068092 0.000000
0.246621 0.986522 0.000000
0.115744 0.913040 0.000000
-0.247564 0.924519 0.000000
-0.898430 1.027040 0.000000
0.293746 1.557097 0.000000
0.224222 1.507759 0.000000
-0.062951 1.480911 0.000000
-0.576731 1.498071 0.000000
-1.350078 1.588682 0.000000
0.269528 2.209175 0.000000
0.050340 2.173556 0.000000
-0.367190 2.159051 0.000000
-0.996116 2.181339 0.000000
-1.849388 2.245502 0.000000
0.091216 2.995448 0.000000
-0.257282 2.956758 0.000000
-0.786711 2.945217 0.000000
-1.491925 2.958975 0.000000
-2.386552 3.002791 0.000000
-0.236102 3.880626 0.000000
-0.698446 3.835121 0.000000
-1.305978 3.820785 0.000000
-2.051289 3.829923 0.000000
-2.952883 3.846422 0.000000
-0.718702 4.838221 0.000000
-1.264771 4.787479 0.000000
-1.913531 4.780240 0.000000
-2.656839 4.782381 0.000000
-3.537344 4.768558 0.000000
-1.351882 5.832204 0.000000
-1.948529 5.800542 0.000000
-2.593304 5.811360 0.000000
-3.310472 5.816473 0.000000
-4.151324 5.786272 0.000000
TENSORS STRESS float
64.431731 19.862090 0.000000
19.862090 61.175627 0.000000
0.000000 0.000000 0.000000
104.163243 16.949451 0.000000
16.949451 95.923999 0.000000
0.000000 0.000000 0.000000
-133.408334 8.428109 0.000000
8.428109 -145.162898 0.000000
0.000000 0.000000 0.000000
-38.902254 2.020545 0.000000
2.020545 -42.552356 0.000000
0.000000 0.000000 0.000000
920.107929 1.118847 0.000000
1.118847 954.538276 0.000000
0.000000 0.000000 0.000000
692.150873 20.659392 0.000000
20.659392 682.228640 0.000000
0.000000 0.000000 0.000000
625.533058 18.497990 0.000000
18.497990 603.921302 0.000000
0.000000 0.000000 0.000000
-44.399986 14.833485 0.000000
14.833485 -66.499607 0.000000
0.000000 0.000000 0.000000
-1486.059309 11.997819 0.000000
11.997819 -1479.039075 0.000000
0.000000 0.000000 0.000000
-1930.379130 -12.098698 0.000000
-12.098698 -1875.366069 0.000000
0.000000 0.000000 0.000000
1611.548311 26.107070 0.000000
26.107070 1597.911312 0.000000
0.000000 0.000000 0.000000
175.648846 23.684222 0.000000
23.684222 152.985736 0.000000
0.000000 0.000000 0.000000
-2710.068478 19.547147 0.000000
19.547147 -2719.659758 0.000000
0.000000 0.000000 0.000000
-7055.395695 5.330022 0.000000
5.330022 -7035.498405 0.000000
0.000000 0.000000 0.000000
-10584.695223 -14.726528 0.000000
-14.726528 -10543.386621 0.000000
0.000000 0.000000 0.000000
1299.790752 33.259462 0.000000
33.259462 1288.673278 0.000000
0.000000 0.000000 0.000000
-2946.535225 27.744520 0.000000
27.744520 -2957.975301 0.000000
0.000000 0.000000 0.000000
-8980.135020 16.989929 0.000000
16.989929 -8977.151337 0.000000
0.000000 0.000000 0.000000
-14969.749114 2.464204 0.000000
2.464204 -14949.953432 0.000000
0.000000 0.000000 0.000000
-19123.832156 -15.436500 0.000000
-15.436500 -19083.428372 0.000000
0.000000 0.000000 0.000000
-2148.720658 38.528765 0.000000
38.528765 -2153.117595 0.000000
0.000000 0.000000 0.000000
-9930.529887 27.947441 0.000000
27.947441 -9931.200905 0.000000
0.000000 0.000000 0.000000
-17704.710468 16.172719 0.000000
16.172719 -17695.768201 0.000000
0.000000 0.000000 0.000000
-25028.157357 1.845301 0.000000
1.845301 -25005.386597 0.000000
0.000000 0.000000 0.000000
-31148.483800 -14.775036 0.000000
-14.775036 -31111.751343 0.000000
0.000000 0.000000 0.000000
-10687.055618 40.016854 0.000000
40.016854 -10685.739369 0.000000
0.000000 0.000000 0.000000
-20047.164636 28.494767 0.000000
28.494767 -20041.229958 0.000000
0.000000 0.000000 0.000000
-29145.977210 15.988792 0.000000
15.988792 -29131.130402 0.000000
0.000000 0.000000 0.000000
-37631.759640 2.710204 0.000000
2.710204 -37607.497674 0.000000
0.000000 0.000000 0.000000
-45447.281942 -12.853910 0.000000
-12.853910 -45412.772819 0.000000
0.000000 0.000000 0.000000
-23076.275094 39.962264 0.000000
39.962264 -23070.766265 0.000000
0.000000 0.000000 0.000000
-33474.847076 28.010105 0.000000
28.010105 -33463.114650 0.000000
0.000000 0.000000 0.000000
-42965.617200 16.652756 0.000000
16.652756 -42945.929867 0.000000
0.000000 0.000000 0.000000
-52298.853946 4.927655 0.000000
4.927655 -52272.392583 0.000000
0.000000 0.000000 0.000000
-62265.707260 -9.949548 0.000000
-9.949548 -62235.559563 0.000000
0.000000 0.000000 0.000000
-39674.880580 38.182233 0.000000
38.182233 -39665.411851 0.000000
0.000000 0.000000 0.000000
-49313.055423 27.273577 0.000000
27.273577 -49294.764761 0.000000
0.000000 0.000000 0.000000
-58138.865027 18.478514 0.000000
18.478514 -58112.970663 0.000000
0.000000 0.000000 0.000000
-68602.952578 8.386750 0.000000
8.386750 -68576.789505 0.000000
0.000000 0.000000 0.000000
-80866.136016 -6.468917 0.000000
-6.468917 -80841.669347 0.000000
0.000000 0.000000 0.000000
-58816.071302 34.459160 0.000000
34.459160 -58800.831729 0.000000
0.000000 0.000000 0.000000
-65062.409943 26.876567 0.000000
26.876567 -65034.238284 0.000000
0.000000 0.000000 0.000000
-72913.735758 21.525208 0.000000
21.525208 -72882.184680 0.000000
0.000000 0.000000 0.000000
-86051.426084 13.040996 0.000000
13.040996 -86026.281136 0.000000
0.000000 0.000000 0.000000
-103513.046451 -2.432060 0.000000
-2.432060 -103495.924750 0.000000
0.000000 0.000000 0.000000
-74599.389900 28.017913 0.000000
28.017913 -74574.565406 0.000000
0.000000 0.000000 0.000000
-75805.647135 24.502032 0.000000
24.502032 -75765.603192 0.000000
0.000000 0.000000 0.000000
-85684.300377 21.713751 0.000000
21.713751 -85641.731233 0.000000
0.000000 0.000000 0.000000
-104989.246206 17.656760 0.000000
17.656760 -104952.037569 0.000000
0.000000 0.000000 0.000000
-136888.003340 7.763914 0.000000
7.763914 -136867.964742 0.000000
0.000000 0.000000 0.000000
