# vtk DataFile Version 2.0
cook_membrance_guass3
ASCII
DATASET POLYDATA
POINTS 66 float
0.000000 0.000000 0.000000
48.000000 44.000000 0.000000
48.000000 60.000000 0.000000
0.000000 44.000000 0.000000
5.920209 5.426858 0.000000
11.558504 10.595295 0.000000
16.928308 15.517615 0.000000
22.042407 20.205540 0.000000
26.912978 24.670230 0.000000
31.551617 28.922315 0.000000
35.969368 32.971920 0.000000
40.176750 36.828687 0.000000
44.183780 40.501799 0.000000
48.000000 47.200000 0.000000
48.000000 50.400000 0.000000
48.000000 53.600000 0.000000
48.000000 56.800000 0.000000
44.183780 58.727927 0.000000
40.176750 57.392250 0.000000
35.969368 55.989789 0.000000
31.551617 54.517206 0.000000
26.912978 52.970993 0.000000
22.042407 51.347469 0.000000
16.928308 49.642769 0.000000
11.558504 47.852835 0.000000
5.920209 45.973403 0.000000
0.000000 35.200000 0.000000
0.000000 26.400000 0.000000
0.000000 17.600000 0.000000
0.000000 8.800000 0.000000
5.920209 13.536167 0.000000
5.920209 21.645476 0.000000
5.920209 29.754785 0.000000
5.920209 37.864094 0.000000
11.558504 18.046803 0.000000
11.558504 25.498311 0.000000
11.558504 32.949819 0.000000
11.558504 40.401327 0.000000
16.928308 22.342646 0.000000
16.928308 29.167677 0.000000
16.928308 35.992708 0.000000
16.928308 42.817738 0.000000
22.042407 26.433926 0.000000
22.042407 32.662311 0.000000
22.042407 38.890697 0.000000
22.042407 45.119083 0.000000
26.912978 30.330382 0.000000
26.912978 35.990535 0.000000
26.912978 41.650687 0.000000
26.912978 47.310840 0.000000
31.551617 34.041293 0.000000
31.551617 39.160271 0.000000
31.551617 44.279249 0.000000
31.551617 49.398227 0.000000
35.969368 37.575494 0.000000
35.969368 42.179068 0.000000
35.969368 46.782642 0.000000
35.969368 51.386215 0.000000
40.176750 40.941400 0.000000
40.176750 45.054112 0.000000
40.176750 49.166825 0.000000
40.176750 53.279537 0.000000
44.183780 44.147024 0.000000
44.183780 47.792250 0.000000
44.183780 51.437476 0.000000
44.183780 55.082701 0.000000
POLYGONS 100 400
3 0 4 29
3 29 4 30
3 29 30 28
3 28 30 31
3 28 31 27
3 27 31 32
3 27 32 26
3 26 32 33
3 26 33 3
3 3 33 25
3 4 5 30
3 30 5 34
3 30 34 31
3 31 34 35
3 31 35 32
3 32 35 36
3 32 36 33
3 33 36 37
3 33 37 25
3 25 37 24
3 5 6 34
3 34 6 38
3 34 38 35
3 35 38 39
3 35 39 36
3 36 39 40
3 36 40 37
3 37 40 41
3 37 41 24
3 24 41 23
3 6 7 38
3 38 7 42
3 38 42 39
3 39 42 43
3 39 43 40
3 40 43 44
3 40 44 41
3 41 44 45
3 41 45 23
3 23 45 22
3 7 8 42
3 42 8 46
3 42 46 43
3 43 46 47
3 43 47 44
3 44 47 48
3 44 48 45
3 45 48 49
3 45 49 22
3 22 49 21
3 8 9 46
3 46 9 50
3 46 50 47
3 47 50 51
3 47 51 48
3 48 51 52
3 48 52 49
3 49 52 53
3 49 53 21
3 21 53 20
3 9 10 50
3 50 10 54
3 50 54 51
3 51 54 55
3 51 55 52
3 52 55 56
3 52 56 53
3 53 56 57
3 53 57 20
3 20 57 19
3 10 11 54
3 54 11 58
3 54 58 55
3 55 58 59
3 55 59 56
3 56 59 60
3 56 60 57
3 57 60 61
3 57 61 19
3 19 61 18
3 11 12 58
3 58 12 62
3 58 62 59
3 59 62 63
3 59 63 60
3 60 63 64
3 60 64 61
3 61 64 65
3 61 65 18
3 18 65 17
3 12 1 62
3 62 1 13
3 62 13 63
3 63 13 14
3 63 14 64
3 64 14 15
3 64 15 65
3 65 15 16
3 65 16 17
3 17 16 2
POINT_DATA 66
VECTORS U float
0.000000 0.000003 0.000000
-0.296885 2.279176 0.000000
-0.357572 2.485848 0.000000
-0.000007 0.000008 0.000000
-0.004210 0.128589 0.000000
-0.016099 0.290572 0.000000
-0.034843 0.480792 0.000000
-0.059144 0.694379 0.000000
-0.087440 0.927143 0.000000
-0.119663 1.176060 0.000000
-0.156326 1.438264 0.000000
-0.197915 1.711076 0.000000
-0.244812 1.992173 0.000000
-0.306012 2.318522 0.000000
-0.316126 2.358944 0.000000
-0.327520 2.400400 0.000000
-0.340892 2.442770 0.000000
-0.300195 2.206450 0.000000
-0.245761 1.928217 0.000000
-0.194898 1.653198 0.000000
-0.148248 1.383348 0.000000
-0.106479 1.120521 0.000000
-0.070367 0.866694 0.000000
-0.040825 0.624557 0.000000
-0.018694 0.397069 0.000000
-0.004811 0.187478 0.000000
-0.000001 0.000001 0.000000
0.000001 -0.000000 0.000000
-0.000000 -0.000000 0.000000
-0.000000 0.000000 0.000000
-0.004205 0.140153 0.000000
-0.004227 0.151762 0.000000
-0.004241 0.163340 0.000000
-0.004369 0.175099 0.000000
-0.016176 0.311559 0.000000
-0.016057 0.332448 0.000000
-0.016239 0.353167 0.000000
-0.016948 0.374527 0.000000
-0.034612 0.509115 0.000000
-0.034346 0.536937 0.000000
-0.035302 0.564936 0.000000
-0.036985 0.594007 0.000000
-0.058203 0.727955 0.000000
-0.058748 0.761039 0.000000
-0.060835 0.794768 0.000000
-0.063903 0.829884 0.000000
-0.086918 0.964359 0.000000
-0.088945 1.001350 0.000000
-0.092350 1.039380 0.000000
-0.097368 1.079103 0.000000
-0.120852 1.215374 0.000000
-0.124492 1.255010 0.000000
-0.129622 1.296075 0.000000
-0.136878 1.338950 0.000000
-0.159773 1.478519 0.000000
-0.165249 1.519790 0.000000
-0.172364 1.562690 0.000000
-0.181711 1.607286 0.000000
-0.203693 1.751657 0.000000
-0.211081 1.793617 0.000000
-0.220035 1.837139 0.000000
-0.231098 1.882116 0.000000
-0.252565 2.032507 0.000000
-0.261580 2.074176 0.000000
-0.271961 2.117168 0.000000
-0.284353 2.161347 0.000000
TENSORS STRESS float
-8533.372000 1.454272 0.000000
1.454272 -8533.372726 0.000000
0.000000 0.000000 0.000000
-1347675.803000 5.117922 0.000000
5.117922 -1347671.907682 0.000000
0.000000 0.000000 0.000000
-9198885.509704 5.176335 0.000000
5.176335 -9198881.130487 0.000000
0.000000 0.000000 0.000000
35346.253720 2.310154 0.000000
2.310154 35346.256482 0.000000
0.000000 0.000000 0.000000
46361.662414 1.924648 0.000000
1.924648 46362.119345 0.000000
0.000000 0.000000 0.000000
299977.944553 2.371614 0.000000
2.371614 299978.843052 0.000000
0.000000 0.000000 0.000000
641736.190783 2.794251 0.000000
2.794251 641737.523752 0.000000
0.000000 0.000000 0.000000
1401229.869629 3.205064 0.000000
3.205064 1401231.616419 0.000000
0.000000 0.000000 0.000000
2303318.173575 3.604483 0.000000
3.604483 2303320.307447 0.000000
0.000000 0.000000 0.000000
2598734.840212 3.974473 0.000000
3.974473 2598737.318412 0.000000
0.000000 0.000000 0.000000
2094986.358983 4.308528 0.000000
4.308528 2094989.148182 0.000000
0.000000 0.000000 0.000000
1058345.798032 4.608358 0.000000
4.608358 1058348.918369 0.000000
0.000000 0.000000 0.000000
-131888.899454 4.877880 0.000000
4.877880 -131885.404859 0.000000
0.000000 0.000000 0.000000
-1877983.004026 5.155682 0.000000
5.155682 -1877978.998540 0.000000
0.000000 0.000000 0.000000
-2556341.590768 5.190507 0.000000
5.190507 -2556337.475625 0.000000
0.000000 0.000000 0.000000
-3659532.805332 5.214727 0.000000
5.214727 -3659528.586935 0.000000
0.000000 0.000000 0.000000
-5638198.735246 5.216211 0.000000
5.216211 -5638194.425680 0.000000
0.000000 0.000000 0.000000
-7261293.078671 4.987936 0.000000
4.987936 -7261289.051785 0.000000
0.000000 0.000000 0.000000
-5539660.505211 4.768960 0.000000
4.768960 -5539656.856976 0.000000
0.000000 0.000000 0.000000
-4292460.403933 4.524761 0.000000
4.524761 -4292457.158323 0.000000
0.000000 0.000000 0.000000
-3331262.271950 4.261978 0.000000
4.261978 -3331259.447725 0.000000
0.000000 0.000000 0.000000
-2529157.368118 3.988113 0.000000
3.988113 -2529154.978200 0.000000
0.000000 0.000000 0.000000
-1672348.883478 3.703475 0.000000
3.703475 -1672346.941204 0.000000
0.000000 0.000000 0.000000
-804134.215980 3.399077 0.000000
3.399077 -804132.734729 0.000000
0.000000 0.000000 0.000000
-291294.976152 3.073165 0.000000
3.073165 -291293.968093 0.000000
0.000000 0.000000 0.000000
64298.701126 2.713162 0.000000
2.713162 64299.212666 0.000000
0.000000 0.000000 0.000000
-31847.637764 2.133967 0.000000
2.133967 -31847.637794 0.000000
0.000000 0.000000 0.000000
7099.231391 1.961055 0.000000
1.961055 7099.231464 0.000000
0.000000 0.000000 0.000000
31875.381468 1.791455 0.000000
1.791455 31875.381336 0.000000
0.000000 0.000000 0.000000
12610.569175 1.623417 0.000000
1.623417 12610.569208 0.000000
0.000000 0.000000 0.000000
76118.586093 2.082293 0.000000
2.082293 76119.043849 0.000000
0.000000 0.000000 0.000000
87175.395656 2.241234 0.000000
2.241234 87175.854565 0.000000
0.000000 0.000000 0.000000
74210.948864 2.396964 0.000000
2.396964 74211.406910 0.000000
0.000000 0.000000 0.000000
59287.502215 2.554457 0.000000
2.554457 59287.976531 0.000000
0.000000 0.000000 0.000000
316484.901725 2.520241 0.000000
2.520241 316485.805407 0.000000
0.000000 0.000000 0.000000
329565.865704 2.667477 0.000000
2.667477 329566.756008 0.000000
0.000000 0.000000 0.000000
221591.762454 2.803650 0.000000
2.803650 221592.661431 0.000000
0.000000 0.000000 0.000000
163820.939774 2.946920 0.000000
2.946920 163821.880865 0.000000
0.000000 0.000000 0.000000
798171.628559 2.939746 0.000000
2.939746 798172.944842 0.000000
0.000000 0.000000 0.000000
596021.805892 3.062742 0.000000
3.062742 596023.105784 0.000000
0.000000 0.000000 0.000000
370217.448283 3.182367 0.000000
3.182367 370218.783831 0.000000
0.000000 0.000000 0.000000
253636.809331 3.310117 0.000000
3.310117 253638.206235 0.000000
0.000000 0.000000 0.000000
1258727.044034 3.330944 0.000000
3.330944 1258728.746775 0.000000
0.000000 0.000000 0.000000
730317.456062 3.427360 0.000000
3.427360 730319.164382 0.000000
0.000000 0.000000 0.000000
495599.988405 3.537406 0.000000
3.537406 495601.754784 0.000000
0.000000 0.000000 0.000000
109605.026848 3.645073 0.000000
3.645073 109606.877876 0.000000
0.000000 0.000000 0.000000
1395360.421513 3.689724 0.000000
3.689724 1395362.504403 0.000000
0.000000 0.000000 0.000000
754403.600997 3.771984 0.000000
3.771984 754405.714771 0.000000
0.000000 0.000000 0.000000
522799.633672 3.867763 0.000000
3.867763 522801.831133 0.000000
0.000000 0.000000 0.000000
-248100.923591 3.950725 0.000000
3.950725 -248098.619157 0.000000
0.000000 0.000000 0.000000
1290001.845284 4.027005 0.000000
4.027005 1290004.297698 0.000000
0.000000 0.000000 0.000000
682444.611704 4.098719 0.000000
4.098719 682447.130191 0.000000
0.000000 0.000000 0.000000
192362.237334 4.175329 0.000000
4.175329 192364.865281 0.000000
0.000000 0.000000 0.000000
-861852.675415 4.237523 0.000000
4.237523 -861849.930814 0.000000
0.000000 0.000000 0.000000
865558.804904 4.347640 0.000000
4.347640 865561.630132 0.000000
0.000000 0.000000 0.000000
268904.009810 4.406802 0.000000
4.406802 268906.937828 0.000000
0.000000 0.000000 0.000000
-406547.908679 4.466223 0.000000
4.466223 -406544.857046 0.000000
0.000000 0.000000 0.000000
-1652682.379572 4.512957 0.000000
4.512957 -1652679.213092 0.000000
0.000000 0.000000 0.000000
150729.374637 4.645518 0.000000
4.645518 150732.587855 0.000000
0.000000 0.000000 0.000000
-477937.195117 4.693818 0.000000
4.693818 -477933.860081 0.000000
0.000000 0.000000 0.000000
-1252196.566978 4.741046 0.000000
4.741046 -1252193.107919 0.000000
0.000000 0.000000 0.000000
-2674835.573623 4.773696 0.000000
4.773696 -2674832.005633 0.000000
0.000000 0.000000 0.000000
-804384.678438 4.915556 0.000000
4.915556 -804381.068311 0.000000
0.000000 0.000000 0.000000
-1416121.416202 4.957101 0.000000
4.957101 -1416117.684633 0.000000
0.000000 0.000000 0.000000
-2298325.451926 4.993244 0.000000
4.993244 -2298321.604662 0.000000
0.000000 0.000000 0.000000
-3966817.338100 5.010940 0.000000
5.010940 -3966813.389180 0.000000
0.000000 0.000000 0.000000
