# vtk DataFile Version 2.0
cook_membrance_guass3
ASCII
DATASET POLYDATA
POINTS 1326 float
0.000000 0.000000 0.000000
48.000000 44.000000 0.000000
48.000000 60.000000 0.000000
0.000000 44.000000 0.000000
1.497563 1.372766 0.000000
2.965762 2.718615 0.000000
4.405172 4.038075 0.000000
5.816359 5.331663 0.000000
7.199876 6.599886 0.000000
8.556264 7.843242 0.000000
9.886057 9.062219 0.000000
11.189776 10.257295 0.000000
12.467931 11.428937 0.000000
13.721025 12.577606 0.000000
14.949548 13.703752 0.000000
16.153982 14.807817 0.000000
17.334801 15.890234 0.000000
18.492465 16.951427 0.000000
19.627431 17.991812 0.000000
20.740142 19.011797 0.000000
21.831035 20.011782 0.000000
22.900539 20.992160 0.000000
23.949071 21.953315 0.000000
24.977044 22.895624 0.000000
25.984861 23.819456 0.000000
26.972917 24.725174 0.000000
27.941599 25.613133 0.000000
28.891287 26.483680 0.000000
29.822354 27.337158 0.000000
30.735165 28.173901 0.000000
31.630078 28.994238 0.000000
32.507443 29.798489 0.000000
33.367605 30.586971 0.000000
34.210901 31.359992 0.000000
35.037662 32.117857 0.000000
35.848212 32.860861 0.000000
36.642868 33.589296 0.000000
37.421943 34.303448 0.000000
38.185743 35.003597 0.000000
38.934565 35.690018 0.000000
39.668705 36.362980 0.000000
40.388450 37.022746 0.000000
41.094083 37.669576 0.000000
41.785879 38.303723 0.000000
42.464111 38.925435 0.000000
43.129044 39.534957 0.000000
43.780940 40.132528 0.000000
44.420053 40.718382 0.000000
45.046634 41.292748 0.000000
45.660930 41.855852 0.000000
46.263180 42.407915 0.000000
46.853622 42.949153 0.000000
47.432486 43.479779 0.000000
48.000000 44.640000 0.000000
48.000000 45.280000 0.000000
48.000000 45.920000 0.000000
48.000000 46.560000 0.000000
48.000000 47.200000 0.000000
48.000000 47.840000 0.000000
48.000000 48.480000 0.000000
48.000000 49.120000 0.000000
48.000000 49.760000 0.000000
48.000000 50.400000 0.000000
48.000000 51.040000 0.000000
48.000000 51.680000 0.000000
48.000000 52.320000 0.000000
48.000000 52.960000 0.000000
48.000000 53.600000 0.000000
48.000000 54.240000 0.000000
48.000000 54.880000 0.000000
48.000000 55.520000 0.000000
48.000000 56.160000 0.000000
48.000000 56.800000 0.000000
48.000000 57.440000 0.000000
48.000000 58.080000 0.000000
48.000000 58.720000 0.000000
48.000000 59.360000 0.000000
47.432486 59.810829 0.000000
46.853622 59.617874 0.000000
46.263180 59.421060 0.000000
45.660929 59.220310 0.000000
45.046634 59.015545 0.000000
44.420053 58.806684 0.000000
43.780940 58.593647 0.000000
43.129044 58.376348 0.000000
42.464111 58.154704 0.000000
41.785879 57.928626 0.000000
41.094083 57.698028 0.000000
40.388450 57.462817 0.000000
39.668705 57.222902 0.000000
38.934565 56.978188 0.000000
38.185743 56.728581 0.000000
37.421943 56.473981 0.000000
36.642868 56.214289 0.000000
35.848212 55.949404 0.000000
35.037662 55.679221 0.000000
34.210901 55.403634 0.000000
33.367605 55.122535 0.000000
32.507443 54.835814 0.000000
31.630078 54.543359 0.000000
30.735165 54.245055 0.000000
29.822354 53.940785 0.000000
28.891287 53.630429 0.000000
27.941599 53.313866 0.000000
26.972917 52.990972 0.000000
25.984861 52.661620 0.000000
24.977044 52.325681 0.000000
23.949071 51.983024 0.000000
22.900539 51.633513 0.000000
21.831035 51.277012 0.000000
20.740142 50.913381 0.000000
19.627431 50.542477 0.000000
18.492465 50.164155 0.000000
17.334801 49.778267 0.000000
16.153982 49.384661 0.000000
14.949548 48.983183 0.000000
13.721025 48.573675 0.000000
12.467931 48.155977 0.000000
11.189776 47.729925 0.000000
9.886057 47.295352 0.000000
8.556264 46.852088 0.000000
7.199876 46.399959 0.000000
5.816359 45.938786 0.000000
4.405172 45.468391 0.000000
2.965762 44.988587 0.000000
1.497563 44.499188 0.000000
0.000000 42.240000 0.000000
0.000000 40.480000 0.000000
0.000000 38.720000 0.000000
0.000000 36.960000 0.000000
0.000000 35.200000 0.000000
0.000000 33.440000 0.000000
0.000000 31.680000 0.000000
0.000000 29.920000 0.000000
0.000000 28.160000 0.000000
0.000000 26.400000 0.000000
0.000000 24.640000 0.000000
0.000000 22.880000 0.000000
0.000000 21.120000 0.000000
0.000000 19.360000 0.000000
0.000000 17.600000 0.000000
0.000000 15.840000 0.000000
0.000000 14.080000 0.000000
0.000000 12.320000 0.000000
0.000000 10.560000 0.000000
0.000000 8.800000 0.000000
0.000000 7.040000 0.000000
0.000000 5.280000 0.000000
0.000000 3.520000 0.000000
0.000000 1.760000 0.000000
1.497563 3.097823 0.000000
1.497563 4.822880 0.000000
1.497563 6.547937 0.000000
1.497563 8.272993 0.000000
1.497563 9.998050 0.000000
1.497563 11.723107 0.000000
1.497563 13.448164 0.000000
1.497563 15.173221 0.000000
1.497563 16.898278 0.000000
1.497563 18.623335 0.000000
1.497563 20.348391 0.000000
1.497563 22.073448 0.000000
1.497563 23.798505 0.000000
1.497563 25.523562 0.000000
1.497563 27.248619 0.000000
1.497563 28.973676 0.000000
1.497563 30.698733 0.000000
1.497563 32.423790 0.000000
1.497563 34.148846 0.000000
1.497563 35.873903 0.000000
1.497563 37.598960 0.000000
1.497563 39.324017 0.000000
1.497563 41.049074 0.000000
1.497563 42.774131 0.000000
2.965762 4.409414 0.000000
2.965762 6.100213 0.000000
2.965762 7.791012 0.000000
2.965762 9.481810 0.000000
2.965762 11.172609 0.000000
2.965762 12.863408 0.000000
2.965762 14.554207 0.000000
2.965762 16.245006 0.000000
2.965762 17.935805 0.000000
2.965762 19.626604 0.000000
2.965762 21.317403 0.000000
2.965762 23.008202 0.000000
2.965762 24.699000 0.000000
2.965762 26.389799 0.000000
2.965762 28.080598 0.000000
2.965762 29.771397 0.000000
2.965762 31.462196 0.000000
2.965762 33.152995 0.000000
2.965762 34.843794 0.000000
2.965762 36.534593 0.000000
2.965762 38.225392 0.000000
2.965762 39.916191 0.000000
2.965762 41.606989 0.000000
2.965762 43.297788 0.000000
4.405172 5.695287 0.000000
4.405172 7.352500 0.000000
4.405172 9.009713 0.000000
4.405172 10.666925 0.000000
4.405172 12.324138 0.000000
4.405172 13.981350 0.000000
4.405172 15.638563 0.000000
4.405172 17.295776 0.000000
4.405172 18.952988 0.000000
4.405172 20.610201 0.000000
4.405172 22.267414 0.000000
4.405172 23.924626 0.000000
4.405172 25.581839 0.000000
4.405172 27.239052 0.000000
4.405172 28.896264 0.000000
4.405172 30.553477 0.000000
4.405172 32.210690 0.000000
4.405172 33.867902 0.000000
4.405172 35.525115 0.000000
4.405172 37.182328 0.000000
4.405172 38.839540 0.000000
4.405172 40.496753 0.000000
4.405172 42.153965 0.000000
4.405172 43.811178 0.000000
5.816359 6.955948 0.000000
5.816359 8.580232 0.000000
5.816359 10.204517 0.000000
5.816359 11.828802 0.000000
5.816359 13.453087 0.000000
5.816359 15.077372 0.000000
5.816359 16.701657 0.000000
5.816359 18.325942 0.000000
5.816359 19.950227 0.000000
5.816359 21.574512 0.000000
5.816359 23.198797 0.000000
5.816359 24.823082 0.000000
5.816359 26.447367 0.000000
5.816359 28.071652 0.000000
5.816359 29.695937 0.000000
5.816359 31.320222 0.000000
5.816359 32.944507 0.000000
5.816359 34.568792 0.000000
5.816359 36.193077 0.000000
5.816359 37.817362 0.000000
5.816359 39.441647 0.000000
5.816359 41.065932 0.000000
5.816359 42.690216 0.000000
5.816359 44.314501 0.000000
7.199876 8.191889 0.000000
7.199876 9.783892 0.000000
7.199876 11.375895 0.000000
7.199876 12.967898 0.000000
7.199876 14.559901 0.000000
7.199876 16.151903 0.000000
7.199876 17.743906 0.000000
7.199876 19.335909 0.000000
7.199876 20.927912 0.000000
7.199876 22.519915 0.000000
7.199876 24.111918 0.000000
7.199876 25.703921 0.000000
7.199876 27.295924 0.000000
7.199876 28.887927 0.000000
7.199876 30.479930 0.000000
7.199876 32.071932 0.000000
7.199876 33.663935 0.000000
7.199876 35.255938 0.000000
7.199876 36.847941 0.000000
7.199876 38.439944 0.000000
7.199876 40.031947 0.000000
7.199876 41.623950 0.000000
7.199876 43.215953 0.000000
7.199876 44.807956 0.000000
8.556264 9.403596 0.000000
8.556264 10.963950 0.000000
8.556264 12.524304 0.000000
8.556264 14.084658 0.000000
8.556264 15.645012 0.000000
8.556264 17.205365 0.000000
8.556264 18.765719 0.000000
8.556264 20.326073 0.000000
8.556264 21.886427 0.000000
8.556264 23.446781 0.000000
8.556264 25.007135 0.000000
8.556264 26.567488 0.000000
8.556264 28.127842 0.000000
8.556264 29.688196 0.000000
8.556264 31.248550 0.000000
8.556264 32.808904 0.000000
8.556264 34.369258 0.000000
8.556264 35.929611 0.000000
8.556264 37.489965 0.000000
8.556264 39.050319 0.000000
8.556264 40.610673 0.000000
8.556264 42.171027 0.000000
8.556264 43.731380 0.000000
8.556264 45.291734 0.000000
9.886057 10.591545 0.000000
9.886057 12.120870 0.000000
9.886057 13.650195 0.000000
9.886057 15.179521 0.000000
9.886057 16.708846 0.000000
9.886057 18.238171 0.000000
9.886057 19.767497 0.000000
9.886057 21.296822 0.000000
9.886057 22.826147 0.000000
9.886057 24.355473 0.000000
9.886057 25.884798 0.000000
9.886057 27.414123 0.000000
9.886057 28.943449 0.000000
9.886057 30.472774 0.000000
9.886057 32.002099 0.000000
9.886057 33.531425 0.000000
9.886057 35.060750 0.000000
9.886057 36.590075 0.000000
9.886057 38.119400 0.000000
9.886057 39.648726 0.000000
9.886057 41.178051 0.000000
9.886057 42.707376 0.000000
9.886057 44.236702 0.000000
9.886057 45.766027 0.000000
11.189776 11.756200 0.000000
11.189776 13.255105 0.000000
11.189776 14.754010 0.000000
11.189776 16.252916 0.000000
11.189776 17.751821 0.000000
11.189776 19.250726 0.000000
11.189776 20.749631 0.000000
11.189776 22.248536 0.000000
11.189776 23.747442 0.000000
11.189776 25.246347 0.000000
11.189776 26.745252 0.000000
11.189776 28.244157 0.000000
11.189776 29.743063 0.000000
11.189776 31.241968 0.000000
11.189776 32.740873 0.000000
11.189776 34.239778 0.000000
11.189776 35.738683 0.000000
11.189776 37.237589 0.000000
11.189776 38.736494 0.000000
11.189776 40.235399 0.000000
11.189776 41.734304 0.000000
11.189776 43.233210 0.000000
11.189776 44.732115 0.000000
11.189776 46.231020 0.000000
12.467931 12.898019 0.000000
12.467931 14.367100 0.000000
12.467931 15.836182 0.000000
12.467931 17.305263 0.000000
12.467931 18.774345 0.000000
12.467931 20.243427 0.000000
12.467931 21.712508 0.000000
12.467931 23.181590 0.000000
12.467931 24.650672 0.000000
12.467931 26.119753 0.000000
12.467931 27.588835 0.000000
12.467931 29.057916 0.000000
12.467931 30.526998 0.000000
12.467931 31.996080 0.000000
12.467931 33.465161 0.000000
12.467931 34.934243 0.000000
12.467931 36.403324 0.000000
12.467931 37.872406 0.000000
12.467931 39.341488 0.000000
12.467931 40.810569 0.000000
12.467931 42.279651 0.000000
12.467931 43.748732 0.000000
12.467931 45.217814 0.000000
12.467931 46.686896 0.000000
13.721025 14.017449 0.000000
13.721025 15.457292 0.000000
13.721025 16.897134 0.000000
13.721025 18.336977 0.000000
13.721025 19.776820 0.000000
13.721025 21.216663 0.000000
13.721025 22.656505 0.000000
13.721025 24.096348 0.000000
13.721025 25.536191 0.000000
13.721025 26.976034 0.000000
13.721025 28.415876 0.000000
13.721025 29.855719 0.000000
13.721025 31.295562 0.000000
13.721025 32.735405 0.000000
13.721025 34.175247 0.000000
13.721025 35.615090 0.000000
13.721025 37.054933 0.000000
13.721025 38.494776 0.000000
13.721025 39.934618 0.000000
13.721025 41.374461 0.000000
13.721025 42.814304 0.000000
13.721025 44.254147 0.000000
13.721025 45.693989 0.000000
13.721025 47.133832 0.000000
14.949548 15.114930 0.000000
14.949548 16.526107 0.000000
14.949548 17.937284 0.000000
14.949548 19.348461 0.000000
14.949548 20.759638 0.000000
14.949548 22.170816 0.000000
14.949548 23.581993 0.000000
14.949548 24.993170 0.000000
14.949548 26.404347 0.000000
14.949548 27.815525 0.000000
14.949548 29.226702 0.000000
14.949548 30.637879 0.000000
14.949548 32.049056 0.000000
14.949548 33.460233 0.000000
14.949548 34.871411 0.000000
14.949548 36.282588 0.000000
14.949548 37.693765 0.000000
14.949548 39.104942 0.000000
14.949548 40.516119 0.000000
14.949548 41.927297 0.000000
14.949548 43.338474 0.000000
14.949548 44.749651 0.000000
14.949548 46.160828 0.000000
14.949548 47.572005 0.000000
16.153982 16.190891 0.000000
16.153982 17.573965 0.000000
16.153982 18.957038 0.000000
16.153982 20.340112 0.000000
16.153982 21.723186 0.000000
16.153982 23.106260 0.000000
16.153982 24.489333 0.000000
16.153982 25.872407 0.000000
16.153982 27.255481 0.000000
16.153982 28.638555 0.000000
16.153982 30.021628 0.000000
16.153982 31.404702 0.000000
16.153982 32.787776 0.000000
16.153982 34.170850 0.000000
16.153982 35.553923 0.000000
16.153982 36.936997 0.000000
16.153982 38.320071 0.000000
16.153982 39.703145 0.000000
16.153982 41.086218 0.000000
16.153982 42.469292 0.000000
16.153982 43.852366 0.000000
16.153982 45.235440 0.000000
16.153982 46.618513 0.000000
16.153982 48.001587 0.000000
17.334801 17.245755 0.000000
17.334801 18.601276 0.000000
17.334801 19.956798 0.000000
17.334801 21.312319 0.000000
17.334801 22.667840 0.000000
17.334801 24.023362 0.000000
17.334801 25.378883 0.000000
17.334801 26.734404 0.000000
17.334801 28.089926 0.000000
17.334801 29.445447 0.000000
17.334801 30.800968 0.000000
17.334801 32.156490 0.000000
17.334801 33.512011 0.000000
17.334801 34.867532 0.000000
17.334801 36.223054 0.000000
17.334801 37.578575 0.000000
17.334801 38.934096 0.000000
17.334801 40.289618 0.000000
17.334801 41.645139 0.000000
17.334801 43.000660 0.000000
17.334801 44.356182 0.000000
17.334801 45.711703 0.000000
17.334801 47.067224 0.000000
17.334801 48.422746 0.000000
18.492465 18.279936 0.000000
18.492465 19.608445 0.000000
18.492465 20.936954 0.000000
18.492465 22.265463 0.000000
18.492465 23.593972 0.000000
18.492465 24.922481 0.000000
18.492465 26.250991 0.000000
18.492465 27.579500 0.000000
18.492465 28.908009 0.000000
18.492465 30.236518 0.000000
18.492465 31.565027 0.000000
18.492465 32.893536 0.000000
18.492465 34.222045 0.000000
18.492465 35.550555 0.000000
18.492465 36.879064 0.000000
18.492465 38.207573 0.000000
18.492465 39.536082 0.000000
18.492465 40.864591 0.000000
18.492465 42.193100 0.000000
18.492465 43.521609 0.000000
18.492465 44.850119 0.000000
18.492465 46.178628 0.000000
18.492465 47.507137 0.000000
18.492465 48.835646 0.000000
19.627431 19.293838 0.000000
19.627431 20.595865 0.000000
19.627431 21.897891 0.000000
19.627431 23.199918 0.000000
19.627431 24.501945 0.000000
19.627431 25.803971 0.000000
19.627431 27.105998 0.000000
19.627431 28.408024 0.000000
19.627431 29.710051 0.000000
19.627431 31.012078 0.000000
19.627431 32.314104 0.000000
19.627431 33.616131 0.000000
19.627431 34.918158 0.000000
19.627431 36.220184 0.000000
19.627431 37.522211 0.000000
19.627431 38.824237 0.000000
19.627431 40.126264 0.000000
19.627431 41.428291 0.000000
19.627431 42.730317 0.000000
19.627431 44.032344 0.000000
19.627431 45.334370 0.000000
19.627431 46.636397 0.000000
19.627431 47.938424 0.000000
19.627431 49.240450 0.000000
20.740142 20.287860 0.000000
20.740142 21.563924 0.000000
20.740142 22.839987 0.000000
20.740142 24.116050 0.000000
20.740142 25.392114 0.000000
20.740142 26.668177 0.000000
20.740142 27.944240 0.000000
20.740142 29.220304 0.000000
20.740142 30.496367 0.000000
20.740142 31.772430 0.000000
20.740142 33.048494 0.000000
20.740142 34.324557 0.000000
20.740142 35.600620 0.000000
20.740142 36.876684 0.000000
20.740142 38.152747 0.000000
20.740142 39.428810 0.000000
20.740142 40.704874 0.000000
20.740142 41.980937 0.000000
20.740142 43.257001 0.000000
20.740142 44.533064 0.000000
20.740142 45.809127 0.000000
20.740142 47.085191 0.000000
20.740142 48.361254 0.000000
20.740142 49.637317 0.000000
21.831035 21.262392 0.000000
21.831035 22.513001 0.000000
21.831035 23.763610 0.000000
21.831035 25.014219 0.000000
21.831035 26.264828 0.000000
21.831035 27.515437 0.000000
21.831035 28.766047 0.000000
21.831035 30.016656 0.000000
21.831035 31.267265 0.000000
21.831035 32.517874 0.000000
21.831035 33.768483 0.000000
21.831035 35.019092 0.000000
21.831035 36.269702 0.000000
21.831035 37.520311 0.000000
21.831035 38.770920 0.000000
21.831035 40.021529 0.000000
21.831035 41.272138 0.000000
21.831035 42.522748 0.000000
21.831035 43.773357 0.000000
21.831035 45.023966 0.000000
21.831035 46.274575 0.000000
21.831035 47.525184 0.000000
21.831035 48.775793 0.000000
21.831035 50.026403 0.000000
22.900539 22.217815 0.000000
22.900539 23.443469 0.000000
22.900539 24.669123 0.000000
22.900539 25.894777 0.000000
22.900539 27.120431 0.000000
22.900539 28.346085 0.000000
22.900539 29.571739 0.000000
22.900539 30.797393 0.000000
22.900539 32.023047 0.000000
22.900539 33.248701 0.000000
22.900539 34.474355 0.000000
22.900539 35.700010 0.000000
22.900539 36.925664 0.000000
22.900539 38.151318 0.000000
22.900539 39.376972 0.000000
22.900539 40.602626 0.000000
22.900539 41.828280 0.000000
22.900539 43.053934 0.000000
22.900539 44.279588 0.000000
22.900539 45.505242 0.000000
22.900539 46.730896 0.000000
22.900539 47.956551 0.000000
22.900539 49.182205 0.000000
22.900539 50.407859 0.000000
23.949071 23.154504 0.000000
23.949071 24.355692 0.000000
23.949071 25.556880 0.000000
23.949071 26.758069 0.000000
23.949071 27.959257 0.000000
23.949071 29.160445 0.000000
23.949071 30.361634 0.000000
23.949071 31.562822 0.000000
23.949071 32.764010 0.000000
23.949071 33.965199 0.000000
23.949071 35.166387 0.000000
23.949071 36.367575 0.000000
23.949071 37.568764 0.000000
23.949071 38.769952 0.000000
23.949071 39.971140 0.000000
23.949071 41.172329 0.000000
23.949071 42.373517 0.000000
23.949071 43.574705 0.000000
23.949071 44.775894 0.000000
23.949071 45.977082 0.000000
23.949071 47.178270 0.000000
23.949071 48.379459 0.000000
23.949071 49.580647 0.000000
23.949071 50.781835 0.000000
24.977044 24.072826 0.000000
24.977044 25.250029 0.000000
24.977044 26.427231 0.000000
24.977044 27.604433 0.000000
24.977044 28.781636 0.000000
24.977044 29.958838 0.000000
24.977044 31.136040 0.000000
24.977044 32.313242 0.000000
24.977044 33.490445 0.000000
24.977044 34.667647 0.000000
24.977044 35.844849 0.000000
24.977044 37.022052 0.000000
24.977044 38.199254 0.000000
24.977044 39.376456 0.000000
24.977044 40.553659 0.000000
24.977044 41.730861 0.000000
24.977044 42.908063 0.000000
24.977044 44.085265 0.000000
24.977044 45.262468 0.000000
24.977044 46.439670 0.000000
24.977044 47.616872 0.000000
24.977044 48.794075 0.000000
24.977044 49.971277 0.000000
24.977044 51.148479 0.000000
25.984861 24.973143 0.000000
25.984861 26.126829 0.000000
25.984861 27.280516 0.000000
25.984861 28.434202 0.000000
25.984861 29.587889 0.000000
25.984861 30.741576 0.000000
25.984861 31.895262 0.000000
25.984861 33.048949 0.000000
25.984861 34.202635 0.000000
25.984861 35.356322 0.000000
25.984861 36.510008 0.000000
25.984861 37.663695 0.000000
25.984861 38.817382 0.000000
25.984861 39.971068 0.000000
25.984861 41.124755 0.000000
25.984861 42.278441 0.000000
25.984861 43.432128 0.000000
25.984861 44.585814 0.000000
25.984861 45.739501 0.000000
25.984861 46.893188 0.000000
25.984861 48.046874 0.000000
25.984861 49.200561 0.000000
25.984861 50.354247 0.000000
25.984861 51.507934 0.000000
26.972917 25.855806 0.000000
26.972917 26.986438 0.000000
26.972917 28.117070 0.000000
26.972917 29.247702 0.000000
26.972917 30.378334 0.000000
26.972917 31.508966 0.000000
26.972917 32.639597 0.000000
26.972917 33.770229 0.000000
26.972917 34.900861 0.000000
26.972917 36.031493 0.000000
26.972917 37.162125 0.000000
26.972917 38.292757 0.000000
26.972917 39.423389 0.000000
26.972917 40.554021 0.000000
26.972917 41.684653 0.000000
26.972917 42.815285 0.000000
26.972917 43.945917 0.000000
26.972917 45.076549 0.000000
26.972917 46.207181 0.000000
26.972917 47.337813 0.000000
26.972917 48.468445 0.000000
26.972917 49.599077 0.000000
26.972917 50.729708 0.000000
26.972917 51.860340 0.000000
27.941599 26.721162 0.000000
27.941599 27.829191 0.000000
27.941599 28.937221 0.000000
27.941599 30.045250 0.000000
27.941599 31.153279 0.000000
27.941599 32.261309 0.000000
27.941599 33.369338 0.000000
27.941599 34.477367 0.000000
27.941599 35.585397 0.000000
27.941599 36.693426 0.000000
27.941599 37.801455 0.000000
27.941599 38.909485 0.000000
27.941599 40.017514 0.000000
27.941599 41.125543 0.000000
27.941599 42.233573 0.000000
27.941599 43.341602 0.000000
27.941599 44.449632 0.000000
27.941599 45.557661 0.000000
27.941599 46.665690 0.000000
27.941599 47.773720 0.000000
27.941599 48.881749 0.000000
27.941599 49.989778 0.000000
27.941599 51.097808 0.000000
27.941599 52.205837 0.000000
28.891287 27.569550 0.000000
28.891287 28.655420 0.000000
28.891287 29.741290 0.000000
28.891287 30.827160 0.000000
28.891287 31.913030 0.000000
28.891287 32.998900 0.000000
28.891287 34.084770 0.000000
28.891287 35.170640 0.000000
28.891287 36.256510 0.000000
28.891287 37.342380 0.000000
28.891287 38.428250 0.000000
28.891287 39.514120 0.000000
28.891287 40.599990 0.000000
28.891287 41.685860 0.000000
28.891287 42.771730 0.000000
28.891287 43.857599 0.000000
28.891287 44.943469 0.000000
28.891287 46.029339 0.000000
28.891287 47.115209 0.000000
28.891287 48.201079 0.000000
28.891287 49.286949 0.000000
28.891287 50.372819 0.000000
28.891287 51.458689 0.000000
28.891287 52.544559 0.000000
29.822354 28.401303 0.000000
29.822354 29.465448 0.000000
29.822354 30.529593 0.000000
29.822354 31.593738 0.000000
29.822354 32.657884 0.000000
29.822354 33.722029 0.000000
29.822354 34.786174 0.000000
29.822354 35.850319 0.000000
29.822354 36.914464 0.000000
29.822354 37.978609 0.000000
29.822354 39.042754 0.000000
29.822354 40.106899 0.000000
29.822354 41.171044 0.000000
29.822354 42.235189 0.000000
29.822354 43.299334 0.000000
29.822354 44.363479 0.000000
29.822354 45.427624 0.000000
29.822354 46.491769 0.000000
29.822354 47.555914 0.000000
29.822354 48.620059 0.000000
29.822354 49.684205 0.000000
29.822354 50.748350 0.000000
29.822354 51.812495 0.000000
29.822354 52.876640 0.000000
30.735165 29.216748 0.000000
30.735165 30.259594 0.000000
30.735165 31.302440 0.000000
30.735165 32.345286 0.000000
30.735165 33.388132 0.000000
30.735165 34.430978 0.000000
30.735165 35.473824 0.000000
30.735165 36.516671 0.000000
30.735165 37.559517 0.000000
30.735165 38.602363 0.000000
30.735165 39.645209 0.000000
30.735165 40.688055 0.000000
30.735165 41.730901 0.000000
30.735165 42.773747 0.000000
30.735165 43.816594 0.000000
30.735165 44.859440 0.000000
30.735165 45.902286 0.000000
30.735165 46.945132 0.000000
30.735165 47.987978 0.000000
30.735165 49.030824 0.000000
30.735165 50.073670 0.000000
30.735165 51.116517 0.000000
30.735165 52.159363 0.000000
30.735165 53.202209 0.000000
31.630078 30.016203 0.000000
31.630078 31.038168 0.000000
31.630078 32.060132 0.000000
31.630078 33.082097 0.000000
31.630078 34.104062 0.000000
31.630078 35.126027 0.000000
31.630078 36.147992 0.000000
31.630078 37.169957 0.000000
31.630078 38.191922 0.000000
31.630078 39.213886 0.000000
31.630078 40.235851 0.000000
31.630078 41.257816 0.000000
31.630078 42.279781 0.000000
31.630078 43.301746 0.000000
31.630078 44.323711 0.000000
31.630078 45.345676 0.000000
31.630078 46.367640 0.000000
31.630078 47.389605 0.000000
31.630078 48.411570 0.000000
31.630078 49.433535 0.000000
31.630078 50.455500 0.000000
31.630078 51.477465 0.000000
31.630078 52.499430 0.000000
31.630078 53.521394 0.000000
32.507443 30.799982 0.000000
32.507443 31.801475 0.000000
32.507443 32.802968 0.000000
32.507443 33.804461 0.000000
32.507443 34.805954 0.000000
32.507443 35.807447 0.000000
32.507443 36.808940 0.000000
32.507443 37.810433 0.000000
32.507443 38.811926 0.000000
32.507443 39.813419 0.000000
32.507443 40.814912 0.000000
32.507443 41.816405 0.000000
32.507443 42.817898 0.000000
32.507443 43.819391 0.000000
32.507443 44.820884 0.000000
32.507443 45.822377 0.000000
32.507443 46.823870 0.000000
32.507443 47.825363 0.000000
32.507443 48.826856 0.000000
32.507443 49.828349 0.000000
32.507443 50.829842 0.000000
32.507443 51.831335 0.000000
32.507443 52.832828 0.000000
32.507443 53.834321 0.000000
33.367605 31.568394 0.000000
33.367605 32.549816 0.000000
33.367605 33.531239 0.000000
33.367605 34.512661 0.000000
33.367605 35.494084 0.000000
33.367605 36.475506 0.000000
33.367605 37.456929 0.000000
33.367605 38.438352 0.000000
33.367605 39.419774 0.000000
33.367605 40.401197 0.000000
33.367605 41.382619 0.000000
33.367605 42.364042 0.000000
33.367605 43.345464 0.000000
33.367605 44.326887 0.000000
33.367605 45.308309 0.000000
33.367605 46.289732 0.000000
33.367605 47.271155 0.000000
33.367605 48.252577 0.000000
33.367605 49.234000 0.000000
33.367605 50.215422 0.000000
33.367605 51.196845 0.000000
33.367605 52.178267 0.000000
33.367605 53.159690 0.000000
33.367605 54.141112 0.000000
34.210901 32.321738 0.000000
34.210901 33.283484 0.000000
34.210901 34.245229 0.000000
34.210901 35.206975 0.000000
34.210901 36.168721 0.000000
34.210901 37.130466 0.000000
34.210901 38.092212 0.000000
34.210901 39.053958 0.000000
34.210901 40.015703 0.000000
34.210901 40.977449 0.000000
34.210901 41.939195 0.000000
34.210901 42.900940 0.000000
34.210901 43.862686 0.000000
34.210901 44.824432 0.000000
34.210901 45.786177 0.000000
34.210901 46.747923 0.000000
34.210901 47.709668 0.000000
34.210901 48.671414 0.000000
34.210901 49.633160 0.000000
34.210901 50.594905 0.000000
34.210901 51.556651 0.000000
34.210901 52.518397 0.000000
34.210901 53.480142 0.000000
34.210901 54.441888 0.000000
35.037662 33.060311 0.000000
35.037662 34.002766 0.000000
35.037662 34.945220 0.000000
35.037662 35.887675 0.000000
35.037662 36.830129 0.000000
35.037662 37.772584 0.000000
35.037662 38.715038 0.000000
35.037662 39.657493 0.000000
35.037662 40.599948 0.000000
35.037662 41.542402 0.000000
35.037662 42.484857 0.000000
35.037662 43.427311 0.000000
35.037662 44.369766 0.000000
35.037662 45.312220 0.000000
35.037662 46.254675 0.000000
35.037662 47.197130 0.000000
35.037662 48.139584 0.000000
35.037662 49.082039 0.000000
35.037662 50.024493 0.000000
35.037662 50.966948 0.000000
35.037662 51.909402 0.000000
35.037662 52.851857 0.000000
35.037662 53.794311 0.000000
35.037662 54.736766 0.000000
35.848212 33.784402 0.000000
35.848212 34.707944 0.000000
35.848212 35.631486 0.000000
35.848212 36.555028 0.000000
35.848212 37.478569 0.000000
35.848212 38.402111 0.000000
35.848212 39.325653 0.000000
35.848212 40.249194 0.000000
35.848212 41.172736 0.000000
35.848212 42.096278 0.000000
35.848212 43.019820 0.000000
35.848212 43.943361 0.000000
35.848212 44.866903 0.000000
35.848212 45.790445 0.000000
35.848212 46.713987 0.000000
35.848212 47.637528 0.000000
35.848212 48.561070 0.000000
35.848212 49.484612 0.000000
35.848212 50.408153 0.000000
35.848212 51.331695 0.000000
35.848212 52.255237 0.000000
35.848212 53.178779 0.000000
35.848212 54.102320 0.000000
35.848212 55.025862 0.000000
36.642868 34.494296 0.000000
36.642868 35.399295 0.000000
36.642868 36.304295 0.000000
36.642868 37.209295 0.000000
36.642868 38.114295 0.000000
36.642868 39.019294 0.000000
36.642868 39.924294 0.000000
36.642868 40.829294 0.000000
36.642868 41.734294 0.000000
36.642868 42.639293 0.000000
36.642868 43.544293 0.000000
36.642868 44.449293 0.000000
36.642868 45.354293 0.000000
36.642868 46.259292 0.000000
36.642868 47.164292 0.000000
36.642868 48.069292 0.000000
36.642868 48.974291 0.000000
36.642868 49.879291 0.000000
36.642868 50.784291 0.000000
36.642868 51.689291 0.000000
36.642868 52.594290 0.000000
36.642868 53.499290 0.000000
36.642868 54.404290 0.000000
36.642868 55.309290 0.000000
37.421943 35.190269 0.000000
37.421943 36.077091 0.000000
37.421943 36.963912 0.000000
37.421943 37.850733 0.000000
37.421943 38.737555 0.000000
37.421943 39.624376 0.000000
37.421943 40.511197 0.000000
37.421943 41.398019 0.000000
37.421943 42.284840 0.000000
37.421943 43.171661 0.000000
37.421943 44.058483 0.000000
37.421943 44.945304 0.000000
37.421943 45.832125 0.000000
37.421943 46.718947 0.000000
37.421943 47.605768 0.000000
37.421943 48.492589 0.000000
37.421943 49.379411 0.000000
37.421943 50.266232 0.000000
37.421943 51.153053 0.000000
37.421943 52.039875 0.000000
37.421943 52.926696 0.000000
37.421943 53.813517 0.000000
37.421943 54.700339 0.000000
37.421943 55.587160 0.000000
38.185743 35.872597 0.000000
38.185743 36.741596 0.000000
38.185743 37.610595 0.000000
38.185743 38.479595 0.000000
38.185743 39.348594 0.000000
38.185743 40.217593 0.000000
38.185743 41.086593 0.000000
38.185743 41.955592 0.000000
38.185743 42.824591 0.000000
38.185743 43.693591 0.000000
38.185743 44.562590 0.000000
38.185743 45.431589 0.000000
38.185743 46.300589 0.000000
38.185743 47.169588 0.000000
38.185743 48.038588 0.000000
38.185743 48.907587 0.000000
38.185743 49.776586 0.000000
38.185743 50.645586 0.000000
38.185743 51.514585 0.000000
38.185743 52.383584 0.000000
38.185743 53.252584 0.000000
38.185743 54.121583 0.000000
38.185743 54.990582 0.000000
38.185743 55.859582 0.000000
38.934565 36.541545 0.000000
38.934565 37.393072 0.000000
38.934565 38.244599 0.000000
38.934565 39.096126 0.000000
38.934565 39.947652 0.000000
38.934565 40.799179 0.000000
38.934565 41.650706 0.000000
38.934565 42.502233 0.000000
38.934565 43.353760 0.000000
38.934565 44.205286 0.000000
38.934565 45.056813 0.000000
38.934565 45.908340 0.000000
38.934565 46.759867 0.000000
38.934565 47.611394 0.000000
38.934565 48.462920 0.000000
38.934565 49.314447 0.000000
38.934565 50.165974 0.000000
38.934565 51.017501 0.000000
38.934565 51.869028 0.000000
38.934565 52.720554 0.000000
38.934565 53.572081 0.000000
38.934565 54.423608 0.000000
38.934565 55.275135 0.000000
38.934565 56.126662 0.000000
39.668705 37.197377 0.000000
39.668705 38.031774 0.000000
39.668705 38.866171 0.000000
39.668705 39.700567 0.000000
39.668705 40.534964 0.000000
39.668705 41.369361 0.000000
39.668705 42.203758 0.000000
39.668705 43.038155 0.000000
39.668705 43.872552 0.000000
39.668705 44.706949 0.000000
39.668705 45.541346 0.000000
39.668705 46.375742 0.000000
39.668705 47.210139 0.000000
39.668705 48.044536 0.000000
39.668705 48.878933 0.000000
39.668705 49.713330 0.000000
39.668705 50.547727 0.000000
39.668705 51.382124 0.000000
39.668705 52.216521 0.000000
39.668705 53.050917 0.000000
39.668705 53.885314 0.000000
39.668705 54.719711 0.000000
39.668705 55.554108 0.000000
39.668705 56.388505 0.000000
40.388450 37.840349 0.000000
40.388450 38.657952 0.000000
40.388450 39.475555 0.000000
40.388450 40.293158 0.000000
40.388450 41.110760 0.000000
40.388450 41.928363 0.000000
40.388450 42.745966 0.000000
40.388450 43.563569 0.000000
40.388450 44.381172 0.000000
40.388450 45.198774 0.000000
40.388450 46.016377 0.000000
40.388450 46.833980 0.000000
40.388450 47.651583 0.000000
40.388450 48.469186 0.000000
40.388450 49.286789 0.000000
40.388450 50.104391 0.000000
40.388450 50.921994 0.000000
40.388450 51.739597 0.000000
40.388450 52.557200 0.000000
40.388450 53.374803 0.000000
40.388450 54.192406 0.000000
40.388450 55.010008 0.000000
40.388450 55.827611 0.000000
40.388450 56.645214 0.000000
41.094083 38.470714 0.000000
41.094083 39.271852 0.000000
41.094083 40.072990 0.000000
41.094083 40.874128 0.000000
41.094083 41.675266 0.000000
41.094083 42.476404 0.000000
41.094083 43.277542 0.000000
41.094083 44.078680 0.000000
41.094083 44.879819 0.000000
41.094083 45.680957 0.000000
41.094083 46.482095 0.000000
41.094083 47.283233 0.000000
41.094083 48.084371 0.000000
41.094083 48.885509 0.000000
41.094083 49.686647 0.000000
41.094083 50.487785 0.000000
41.094083 51.288923 0.000000
41.094083 52.090061 0.000000
41.094083 52.891199 0.000000
41.094083 53.692337 0.000000
41.094083 54.493475 0.000000
41.094083 55.294613 0.000000
41.094083 56.095751 0.000000
41.094083 56.896890 0.000000
41.785879 39.088719 0.000000
41.785879 39.873715 0.000000
41.785879 40.658711 0.000000
41.785879 41.443707 0.000000
41.785879 42.228703 0.000000
41.785879 43.013700 0.000000
41.785879 43.798696 0.000000
41.785879 44.583692 0.000000
41.785879 45.368688 0.000000
41.785879 46.153684 0.000000
41.785879 46.938680 0.000000
41.785879 47.723677 0.000000
41.785879 48.508673 0.000000
41.785879 49.293669 0.000000
41.785879 50.078665 0.000000
41.785879 50.863661 0.000000
41.785879 51.648657 0.000000
41.785879 52.433653 0.000000
41.785879 53.218650 0.000000
41.785879 54.003646 0.000000
41.785879 54.788642 0.000000
41.785879 55.573638 0.000000
41.785879 56.358634 0.000000
41.785879 57.143630 0.000000
42.464111 39.694606 0.000000
42.464111 40.463777 0.000000
42.464111 41.232947 0.000000
42.464111 42.002118 0.000000
42.464111 42.771289 0.000000
42.464111 43.540460 0.000000
42.464111 44.309630 0.000000
42.464111 45.078801 0.000000
42.464111 45.847972 0.000000
42.464111 46.617143 0.000000
42.464111 47.386313 0.000000
42.464111 48.155484 0.000000
42.464111 48.924655 0.000000
42.464111 49.693826 0.000000
42.464111 50.462996 0.000000
42.464111 51.232167 0.000000
42.464111 52.001338 0.000000
42.464111 52.770509 0.000000
42.464111 53.539679 0.000000
42.464111 54.308850 0.000000
42.464111 55.078021 0.000000
42.464111 55.847192 0.000000
42.464111 56.616362 0.000000
42.464111 57.385533 0.000000
43.129044 40.288613 0.000000
43.129044 41.042269 0.000000
43.129044 41.795924 0.000000
43.129044 42.549580 0.000000
43.129044 43.303235 0.000000
43.129044 44.056891 0.000000
43.129044 44.810547 0.000000
43.129044 45.564202 0.000000
43.129044 46.317858 0.000000
43.129044 47.071514 0.000000
43.129044 47.825169 0.000000
43.129044 48.578825 0.000000
43.129044 49.332481 0.000000
43.129044 50.086136 0.000000
43.129044 50.839792 0.000000
43.129044 51.593447 0.000000
43.129044 52.347103 0.000000
43.129044 53.100759 0.000000
43.129044 53.854414 0.000000
43.129044 54.608070 0.000000
43.129044 55.361726 0.000000
43.129044 56.115381 0.000000
43.129044 56.869037 0.000000
43.129044 57.622692 0.000000
43.780940 40.870973 0.000000
43.780940 41.609417 0.000000
43.780940 42.347862 0.000000
43.780940 43.086307 0.000000
43.780940 43.824752 0.000000
43.780940 44.563196 0.000000
43.780940 45.301641 0.000000
43.780940 46.040086 0.000000
43.780940 46.778531 0.000000
43.780940 47.516975 0.000000
43.780940 48.255420 0.000000
43.780940 48.993865 0.000000
43.780940 49.732310 0.000000
43.780940 50.470754 0.000000
43.780940 51.209199 0.000000
43.780940 51.947644 0.000000
43.780940 52.686089 0.000000
43.780940 53.424533 0.000000
43.780940 54.162978 0.000000
43.780940 54.901423 0.000000
43.780940 55.639868 0.000000
43.780940 56.378312 0.000000
43.780940 57.116757 0.000000
43.780940 57.855202 0.000000
44.420053 41.441914 0.000000
44.420053 42.165446 0.000000
44.420053 42.888978 0.000000
44.420053 43.612510 0.000000
44.420053 44.336042 0.000000
44.420053 45.059574 0.000000
44.420053 45.783106 0.000000
44.420053 46.506638 0.000000
44.420053 47.230171 0.000000
44.420053 47.953703 0.000000
44.420053 48.677235 0.000000
44.420053 49.400767 0.000000
44.420053 50.124299 0.000000
44.420053 50.847831 0.000000
44.420053 51.571363 0.000000
44.420053 52.294895 0.000000
44.420053 53.018427 0.000000
44.420053 53.741959 0.000000
44.420053 54.465492 0.000000
44.420053 55.189024 0.000000
44.420053 55.912556 0.000000
44.420053 56.636088 0.000000
44.420053 57.359620 0.000000
44.420053 58.083152 0.000000
45.046634 42.001660 0.000000
45.046634 42.710572 0.000000
45.046634 43.419483 0.000000
45.046634 44.128395 0.000000
45.046634 44.837307 0.000000
45.046634 45.546219 0.000000
45.046634 46.255131 0.000000
45.046634 46.964043 0.000000
45.046634 47.672955 0.000000
45.046634 48.381867 0.000000
45.046634 49.090778 0.000000
45.046634 49.799690 0.000000
45.046634 50.508602 0.000000
45.046634 51.217514 0.000000
45.046634 51.926426 0.000000
45.046634 52.635338 0.000000
45.046634 53.344250 0.000000
45.046634 54.053162 0.000000
45.046634 54.762073 0.000000
45.046634 55.470985 0.000000
45.046634 56.179897 0.000000
45.046634 56.888809 0.000000
45.046634 57.597721 0.000000
45.046634 58.306633 0.000000
45.660930 42.550430 0.000000
45.660930 43.245009 0.000000
45.660930 43.939587 0.000000
45.660930 44.634165 0.000000
45.660929 45.328744 0.000000
45.660929 46.023322 0.000000
45.660929 46.717900 0.000000
45.660929 47.412479 0.000000
45.660929 48.107057 0.000000
45.660929 48.801635 0.000000
45.660929 49.496213 0.000000
45.660929 50.190792 0.000000
45.660929 50.885370 0.000000
45.660929 51.579948 0.000000
45.660929 52.274527 0.000000
45.660929 52.969105 0.000000
45.660929 53.663683 0.000000
45.660929 54.358262 0.000000
45.660929 55.052840 0.000000
45.660929 55.747418 0.000000
45.660929 56.441997 0.000000
45.660929 57.136575 0.000000
45.660929 57.831153 0.000000
45.660929 58.525732 0.000000
46.263180 43.088441 0.000000
46.263180 43.768967 0.000000
46.263180 44.449492 0.000000
46.263180 45.130018 0.000000
46.263180 45.810544 0.000000
46.263180 46.491070 0.000000
46.263180 47.171596 0.000000
46.263180 47.852121 0.000000
46.263180 48.532647 0.000000
46.263180 49.213173 0.000000
46.263180 49.893699 0.000000
46.263180 50.574225 0.000000
46.263180 51.254750 0.000000
46.263180 51.935276 0.000000
46.263180 52.615802 0.000000
46.263180 53.296328 0.000000
46.263180 53.976854 0.000000
46.263180 54.657379 0.000000
46.263180 55.337905 0.000000
46.263180 56.018431 0.000000
46.263180 56.698957 0.000000
46.263180 57.379483 0.000000
46.263180 58.060008 0.000000
46.263180 58.740534 0.000000
46.853622 43.615902 0.000000
46.853622 44.282651 0.000000
46.853622 44.949400 0.000000
46.853622 45.616148 0.000000
46.853622 46.282897 0.000000
46.853622 46.949646 0.000000
46.853622 47.616395 0.000000
46.853622 48.283144 0.000000
46.853622 48.949893 0.000000
46.853622 49.616641 0.000000
46.853622 50.283390 0.000000
46.853622 50.950139 0.000000
46.853622 51.616888 0.000000
46.853622 52.283637 0.000000
46.853622 52.950386 0.000000
46.853622 53.617134 0.000000
46.853622 54.283883 0.000000
46.853622 54.950632 0.000000
46.853622 55.617381 0.000000
46.853622 56.284130 0.000000
46.853622 56.950879 0.000000
46.853622 57.617627 0.000000
46.853622 58.284376 0.000000
46.853622 58.951125 0.000000
47.432486 44.133021 0.000000
47.432486 44.786263 0.000000
47.432486 45.439505 0.000000
47.432486 46.092747 0.000000
47.432486 46.745989 0.000000
47.432486 47.399231 0.000000
47.432486 48.052473 0.000000
47.432486 48.705715 0.000000
47.432486 49.358957 0.000000
47.432486 50.012199 0.000000
47.432486 50.665441 0.000000
47.432486 51.318683 0.000000
47.432486 51.971925 0.000000
47.432486 52.625167 0.000000
47.432486 53.278409 0.000000
47.432486 53.931651 0.000000
47.432486 54.584893 0.000000
47.432486 55.238135 0.000000
47.432486 55.891377 0.000000
47.432486 56.544619 0.000000
47.432486 57.197861 0.000000
47.432486 57.851103 0.000000
47.432486 58.504345 0.000000
47.432486 59.157587 0.000000
POLYGONS 2500 10000
3 0 4 149
3 149 4 150
3 149 150 148
3 148 150 151
3 148 151 147
3 147 151 152
3 147 152 146
3 146 152 153
3 146 153 145
3 145 153 154
3 145 154 144
3 144 154 155
3 144 155 143
3 143 155 156
3 143 156 142
3 142 156 157
3 142 157 141
3 141 157 158
3 141 158 140
3 140 158 159
3 140 159 139
3 139 159 160
3 139 160 138
3 138 160 161
3 138 161 137
3 137 161 162
3 137 162 136
3 136 162 163
3 136 163 135
3 135 163 164
3 135 164 134
3 134 164 165
3 134 165 133
3 133 165 166
3 133 166 132
3 132 166 167
3 132 167 131
3 131 167 168
3 131 168 130
3 130 168 169
3 130 169 129
3 129 169 170
3 129 170 128
3 128 170 171
3 128 171 127
3 127 171 172
3 127 172 126
3 126 172 173
3 126 173 3
3 3 173 125
3 4 5 150
3 150 5 174
3 150 174 151
3 151 174 175
3 151 175 152
3 152 175 176
3 152 176 153
3 153 176 177
3 153 177 154
3 154 177 178
3 154 178 155
3 155 178 179
3 155 179 156
3 156 179 180
3 156 180 157
3 157 180 181
3 157 181 158
3 158 181 182
3 158 182 159
3 159 182 183
3 159 183 160
3 160 183 184
3 160 184 161
3 161 184 185
3 161 185 162
3 162 185 186
3 162 186 163
3 163 186 187
3 163 187 164
3 164 187 188
3 164 188 165
3 165 188 189
3 165 189 166
3 166 189 190
3 166 190 167
3 167 190 191
3 167 191 168
3 168 191 192
3 168 192 169
3 169 192 193
3 169 193 170
3 170 193 194
3 170 194 171
3 171 194 195
3 171 195 172
3 172 195 196
3 172 196 173
3 173 196 197
3 173 197 125
3 125 197 124
3 5 6 174
3 174 6 198
3 174 198 175
3 175 198 199
3 175 199 176
3 176 199 200
3 176 200 177
3 177 200 201
3 177 201 178
3 178 201 202
3 178 202 179
3 179 202 203
3 179 203 180
3 180 203 204
3 180 204 181
3 181 204 205
3 181 205 182
3 182 205 206
3 182 206 183
3 183 206 207
3 183 207 184
3 184 207 208
3 184 208 185
3 185 208 209
3 185 209 186
3 186 209 210
3 186 210 187
3 187 210 211
3 187 211 188
3 188 211 212
3 188 212 189
3 189 212 213
3 189 213 190
3 190 213 214
3 190 214 191
3 191 214 215
3 191 215 192
3 192 215 216
3 192 216 193
3 193 216 217
3 193 217 194
3 194 217 218
3 194 218 195
3 195 218 219
3 195 219 196
3 196 219 220
3 196 220 197
3 197 220 221
3 197 221 124
3 124 221 123
3 6 7 198
3 198 7 222
3 198 222 199
3 199 222 223
3 199 223 200
3 200 223 224
3 200 224 201
3 201 224 225
3 201 225 202
3 202 225 226
3 202 226 203
3 203 226 227
3 203 227 204
3 204 227 228
3 204 228 205
3 205 228 229
3 205 229 206
3 206 229 230
3 206 230 207
3 207 230 231
3 207 231 208
3 208 231 232
3 208 232 209
3 209 232 233
3 209 233 210
3 210 233 234
3 210 234 211
3 211 234 235
3 211 235 212
3 212 235 236
3 212 236 213
3 213 236 237
3 213 237 214
3 214 237 238
3 214 238 215
3 215 238 239
3 215 239 216
3 216 239 240
3 216 240 217
3 217 240 241
3 217 241 218
3 218 241 242
3 218 242 219
3 219 242 243
3 219 243 220
3 220 243 244
3 220 244 221
3 221 244 245
3 221 245 123
3 123 245 122
3 7 8 222
3 222 8 246
3 222 246 223
3 223 246 247
3 223 247 224
3 224 247 248
3 224 248 225
3 225 248 249
3 225 249 226
3 226 249 250
3 226 250 227
3 227 250 251
3 227 251 228
3 228 251 252
3 228 252 229
3 229 252 253
3 229 253 230
3 230 253 254
3 230 254 231
3 231 254 255
3 231 255 232
3 232 255 256
3 232 256 233
3 233 256 257
3 233 257 234
3 234 257 258
3 234 258 235
3 235 258 259
3 235 259 236
3 236 259 260
3 236 260 237
3 237 260 261
3 237 261 238
3 238 261 262
3 238 262 239
3 239 262 263
3 239 263 240
3 240 263 264
3 240 264 241
3 241 264 265
3 241 265 242
3 242 265 266
3 242 266 243
3 243 266 267
3 243 267 244
3 244 267 268
3 244 268 245
3 245 268 269
3 245 269 122
3 122 269 121
3 8 9 246
3 246 9 270
3 246 270 247
3 247 270 271
3 247 271 248
3 248 271 272
3 248 272 249
3 249 272 273
3 249 273 250
3 250 273 274
3 250 274 251
3 251 274 275
3 251 275 252
3 252 275 276
3 252 276 253
3 253 276 277
3 253 277 254
3 254 277 278
3 254 278 255
3 255 278 279
3 255 279 256
3 256 279 280
3 256 280 257
3 257 280 281
3 257 281 258
3 258 281 282
3 258 282 259
3 259 282 283
3 259 283 260
3 260 283 284
3 260 284 261
3 261 284 285
3 261 285 262
3 262 285 286
3 262 286 263
3 263 286 287
3 263 287 264
3 264 287 288
3 264 288 265
3 265 288 289
3 265 289 266
3 266 289 290
3 266 290 267
3 267 290 291
3 267 291 268
3 268 291 292
3 268 292 269
3 269 292 293
3 269 293 121
3 121 293 120
3 9 10 270
3 270 10 294
3 270 294 271
3 271 294 295
3 271 295 272
3 272 295 296
3 272 296 273
3 273 296 297
3 273 297 274
3 274 297 298
3 274 298 275
3 275 298 299
3 275 299 276
3 276 299 300
3 276 300 277
3 277 300 301
3 277 301 278
3 278 301 302
3 278 302 279
3 279 302 303
3 279 303 280
3 280 303 304
3 280 304 281
3 281 304 305
3 281 305 282
3 282 305 306
3 282 306 283
3 283 306 307
3 283 307 284
3 284 307 308
3 284 308 285
3 285 308 309
3 285 309 286
3 286 309 310
3 286 310 287
3 287 310 311
3 287 311 288
3 288 311 312
3 288 312 289
3 289 312 313
3 289 313 290
3 290 313 314
3 290 314 291
3 291 314 315
3 291 315 292
3 292 315 316
3 292 316 293
3 293 316 317
3 293 317 120
3 120 317 119
3 10 11 294
3 294 11 318
3 294 318 295
3 295 318 319
3 295 319 296
3 296 319 320
3 296 320 297
3 297 320 321
3 297 321 298
3 298 321 322
3 298 322 299
3 299 322 323
3 299 323 300
3 300 323 324
3 300 324 301
3 301 324 325
3 301 325 302
3 302 325 326
3 302 326 303
3 303 326 327
3 303 327 304
3 304 327 328
3 304 328 305
3 305 328 329
3 305 329 306
3 306 329 330
3 306 330 307
3 307 330 331
3 307 331 308
3 308 331 332
3 308 332 309
3 309 332 333
3 309 333 310
3 310 333 334
3 310 334 311
3 311 334 335
3 311 335 312
3 312 335 336
3 312 336 313
3 313 336 337
3 313 337 314
3 314 337 338
3 314 338 315
3 315 338 339
3 315 339 316
3 316 339 340
3 316 340 317
3 317 340 341
3 317 341 119
3 119 341 118
3 11 12 318
3 318 12 342
3 318 342 319
3 319 342 343
3 319 343 320
3 320 343 344
3 320 344 321
3 321 344 345
3 321 345 322
3 322 345 346
3 322 346 323
3 323 346 347
3 323 347 324
3 324 347 348
3 324 348 325
3 325 348 349
3 325 349 326
3 326 349 350
3 326 350 327
3 327 350 351
3 327 351 328
3 328 351 352
3 328 352 329
3 329 352 353
3 329 353 330
3 330 353 354
3 330 354 331
3 331 354 355
3 331 355 332
3 332 355 356
3 332 356 333
3 333 356 357
3 333 357 334
3 334 357 358
3 334 358 335
3 335 358 359
3 335 359 336
3 336 359 360
3 336 360 337
3 337 360 361
3 337 361 338
3 338 361 362
3 338 362 339
3 339 362 363
3 339 363 340
3 340 363 364
3 340 364 341
3 341 364 365
3 341 365 118
3 118 365 117
3 12 13 342
3 342 13 366
3 342 366 343
3 343 366 367
3 343 367 344
3 344 367 368
3 344 368 345
3 345 368 369
3 345 369 346
3 346 369 370
3 346 370 347
3 347 370 371
3 347 371 348
3 348 371 372
3 348 372 349
3 349 372 373
3 349 373 350
3 350 373 374
3 350 374 351
3 351 374 375
3 351 375 352
3 352 375 376
3 352 376 353
3 353 376 377
3 353 377 354
3 354 377 378
3 354 378 355
3 355 378 379
3 355 379 356
3 356 379 380
3 356 380 357
3 357 380 381
3 357 381 358
3 358 381 382
3 358 382 359
3 359 382 383
3 359 383 360
3 360 383 384
3 360 384 361
3 361 384 385
3 361 385 362
3 362 385 386
3 362 386 363
3 363 386 387
3 363 387 364
3 364 387 388
3 364 388 365
3 365 388 389
3 365 389 117
3 117 389 116
3 13 14 366
3 366 14 390
3 366 390 367
3 367 390 391
3 367 391 368
3 368 391 392
3 368 392 369
3 369 392 393
3 369 393 370
3 370 393 394
3 370 394 371
3 371 394 395
3 371 395 372
3 372 395 396
3 372 396 373
3 373 396 397
3 373 397 374
3 374 397 398
3 374 398 375
3 375 398 399
3 375 399 376
3 376 399 400
3 376 400 377
3 377 400 401
3 377 401 378
3 378 401 402
3 378 402 379
3 379 402 403
3 379 403 380
3 380 403 404
3 380 404 381
3 381 404 405
3 381 405 382
3 382 405 406
3 382 406 383
3 383 406 407
3 383 407 384
3 384 407 408
3 384 408 385
3 385 408 409
3 385 409 386
3 386 409 410
3 386 410 387
3 387 410 411
3 387 411 388
3 388 411 412
3 388 412 389
3 389 412 413
3 389 413 116
3 116 413 115
3 14 15 390
3 390 15 414
3 390 414 391
3 391 414 415
3 391 415 392
3 392 415 416
3 392 416 393
3 393 416 417
3 393 417 394
3 394 417 418
3 394 418 395
3 395 418 419
3 395 419 396
3 396 419 420
3 396 420 397
3 397 420 421
3 397 421 398
3 398 421 422
3 398 422 399
3 399 422 423
3 399 423 400
3 400 423 424
3 400 424 401
3 401 424 425
3 401 425 402
3 402 425 426
3 402 426 403
3 403 426 427
3 403 427 404
3 404 427 428
3 404 428 405
3 405 428 429
3 405 429 406
3 406 429 430
3 406 430 407
3 407 430 431
3 407 431 408
3 408 431 432
3 408 432 409
3 409 432 433
3 409 433 410
3 410 433 434
3 410 434 411
3 411 434 435
3 411 435 412
3 412 435 436
3 412 436 413
3 413 436 437
3 413 437 115
3 115 437 114
3 15 16 414
3 414 16 438
3 414 438 415
3 415 438 439
3 415 439 416
3 416 439 440
3 416 440 417
3 417 440 441
3 417 441 418
3 418 441 442
3 418 442 419
3 419 442 443
3 419 443 420
3 420 443 444
3 420 444 421
3 421 444 445
3 421 445 422
3 422 445 446
3 422 446 423
3 423 446 447
3 423 447 424
3 424 447 448
3 424 448 425
3 425 448 449
3 425 449 426
3 426 449 450
3 426 450 427
3 427 450 451
3 427 451 428
3 428 451 452
3 428 452 429
3 429 452 453
3 429 453 430
3 430 453 454
3 430 454 431
3 431 454 455
3 431 455 432
3 432 455 456
3 432 456 433
3 433 456 457
3 433 457 434
3 434 457 458
3 434 458 435
3 435 458 459
3 435 459 436
3 436 459 460
3 436 460 437
3 437 460 461
3 437 461 114
3 114 461 113
3 16 17 438
3 438 17 462
3 438 462 439
3 439 462 463
3 439 463 440
3 440 463 464
3 440 464 441
3 441 464 465
3 441 465 442
3 442 465 466
3 442 466 443
3 443 466 467
3 443 467 444
3 444 467 468
3 444 468 445
3 445 468 469
3 445 469 446
3 446 469 470
3 446 470 447
3 447 470 471
3 447 471 448
3 448 471 472
3 448 472 449
3 449 472 473
3 449 473 450
3 450 473 474
3 450 474 451
3 451 474 475
3 451 475 452
3 452 475 476
3 452 476 453
3 453 476 477
3 453 477 454
3 454 477 478
3 454 478 455
3 455 478 479
3 455 479 456
3 456 479 480
3 456 480 457
3 457 480 481
3 457 481 458
3 458 481 482
3 458 482 459
3 459 482 483
3 459 483 460
3 460 483 484
3 460 484 461
3 461 484 485
3 461 485 113
3 113 485 112
3 17 18 462
3 462 18 486
3 462 486 463
3 463 486 487
3 463 487 464
3 464 487 488
3 464 488 465
3 465 488 489
3 465 489 466
3 466 489 490
3 466 490 467
3 467 490 491
3 467 491 468
3 468 491 492
3 468 492 469
3 469 492 493
3 469 493 470
3 470 493 494
3 470 494 471
3 471 494 495
3 471 495 472
3 472 495 496
3 472 496 473
3 473 496 497
3 473 497 474
3 474 497 498
3 474 498 475
3 475 498 499
3 475 499 476
3 476 499 500
3 476 500 477
3 477 500 501
3 477 501 478
3 478 501 502
3 478 502 479
3 479 502 503
3 479 503 480
3 480 503 504
3 480 504 481
3 481 504 505
3 481 505 482
3 482 505 506
3 482 506 483
3 483 506 507
3 483 507 484
3 484 507 508
3 484 508 485
3 485 508 509
3 485 509 112
3 112 509 111
3 18 19 486
3 486 19 510
3 486 510 487
3 487 510 511
3 487 511 488
3 488 511 512
3 488 512 489
3 489 512 513
3 489 513 490
3 490 513 514
3 490 514 491
3 491 514 515
3 491 515 492
3 492 515 516
3 492 516 493
3 493 516 517
3 493 517 494
3 494 517 518
3 494 518 495
3 495 518 519
3 495 519 496
3 496 519 520
3 496 520 497
3 497 520 521
3 497 521 498
3 498 521 522
3 498 522 499
3 499 522 523
3 499 523 500
3 500 523 524
3 500 524 501
3 501 524 525
3 501 525 502
3 502 525 526
3 502 526 503
3 503 526 527
3 503 527 504
3 504 527 528
3 504 528 505
3 505 528 529
3 505 529 506
3 506 529 530
3 506 530 507
3 507 530 531
3 507 531 508
3 508 531 532
3 508 532 509
3 509 532 533
3 509 533 111
3 111 533 110
3 19 20 510
3 510 20 534
3 510 534 511
3 511 534 535
3 511 535 512
3 512 535 536
3 512 536 513
3 513 536 537
3 513 537 514
3 514 537 538
3 514 538 515
3 515 538 539
3 515 539 516
3 516 539 540
3 516 540 517
3 517 540 541
3 517 541 518
3 518 541 542
3 518 542 519
3 519 542 543
3 519 543 520
3 520 543 544
3 520 544 521
3 521 544 545
3 521 545 522
3 522 545 546
3 522 546 523
3 523 546 547
3 523 547 524
3 524 547 548
3 524 548 525
3 525 548 549
3 525 549 526
3 526 549 550
3 526 550 527
3 527 550 551
3 527 551 528
3 528 551 552
3 528 552 529
3 529 552 553
3 529 553 530
3 530 553 554
3 530 554 531
3 531 554 555
3 531 555 532
3 532 555 556
3 532 556 533
3 533 556 557
3 533 557 110
3 110 557 109
3 20 21 534
3 534 21 558
3 534 558 535
3 535 558 559
3 535 559 536
3 536 559 560
3 536 560 537
3 537 560 561
3 537 561 538
3 538 561 562
3 538 562 539
3 539 562 563
3 539 563 540
3 540 563 564
3 540 564 541
3 541 564 565
3 541 565 542
3 542 565 566
3 542 566 543
3 543 566 567
3 543 567 544
3 544 567 568
3 544 568 545
3 545 568 569
3 545 569 546
3 546 569 570
3 546 570 547
3 547 570 571
3 547 571 548
3 548 571 572
3 548 572 549
3 549 572 573
3 549 573 550
3 550 573 574
3 550 574 551
3 551 574 575
3 551 575 552
3 552 575 576
3 552 576 553
3 553 576 577
3 553 577 554
3 554 577 578
3 554 578 555
3 555 578 579
3 555 579 556
3 556 579 580
3 556 580 557
3 557 580 581
3 557 581 109
3 109 581 108
3 21 22 558
3 558 22 582
3 558 582 559
3 559 582 583
3 559 583 560
3 560 583 584
3 560 584 561
3 561 584 585
3 561 585 562
3 562 585 586
3 562 586 563
3 563 586 587
3 563 587 564
3 564 587 588
3 564 588 565
3 565 588 589
3 565 589 566
3 566 589 590
3 566 590 567
3 567 590 591
3 567 591 568
3 568 591 592
3 568 592 569
3 569 592 593
3 569 593 570
3 570 593 594
3 570 594 571
3 571 594 595
3 571 595 572
3 572 595 596
3 572 596 573
3 573 596 597
3 573 597 574
3 574 597 598
3 574 598 575
3 575 598 599
3 575 599 576
3 576 599 600
3 576 600 577
3 577 600 601
3 577 601 578
3 578 601 602
3 578 602 579
3 579 602 603
3 579 603 580
3 580 603 604
3 580 604 581
3 581 604 605
3 581 605 108
3 108 605 107
3 22 23 582
3 582 23 606
3 582 606 583
3 583 606 607
3 583 607 584
3 584 607 608
3 584 608 585
3 585 608 609
3 585 609 586
3 586 609 610
3 586 610 587
3 587 610 611
3 587 611 588
3 588 611 612
3 588 612 589
3 589 612 613
3 589 613 590
3 590 613 614
3 590 614 591
3 591 614 615
3 591 615 592
3 592 615 616
3 592 616 593
3 593 616 617
3 593 617 594
3 594 617 618
3 594 618 595
3 595 618 619
3 595 619 596
3 596 619 620
3 596 620 597
3 597 620 621
3 597 621 598
3 598 621 622
3 598 622 599
3 599 622 623
3 599 623 600
3 600 623 624
3 600 624 601
3 601 624 625
3 601 625 602
3 602 625 626
3 602 626 603
3 603 626 627
3 603 627 604
3 604 627 628
3 604 628 605
3 605 628 629
3 605 629 107
3 107 629 106
3 23 24 606
3 606 24 630
3 606 630 607
3 607 630 631
3 607 631 608
3 608 631 632
3 608 632 609
3 609 632 633
3 609 633 610
3 610 633 634
3 610 634 611
3 611 634 635
3 611 635 612
3 612 635 636
3 612 636 613
3 613 636 637
3 613 637 614
3 614 637 638
3 614 638 615
3 615 638 639
3 615 639 616
3 616 639 640
3 616 640 617
3 617 640 641
3 617 641 618
3 618 641 642
3 618 642 619
3 619 642 643
3 619 643 620
3 620 643 644
3 620 644 621
3 621 644 645
3 621 645 622
3 622 645 646
3 622 646 623
3 623 646 647
3 623 647 624
3 624 647 648
3 624 648 625
3 625 648 649
3 625 649 626
3 626 649 650
3 626 650 627
3 627 650 651
3 627 651 628
3 628 651 652
3 628 652 629
3 629 652 653
3 629 653 106
3 106 653 105
3 24 25 630
3 630 25 654
3 630 654 631
3 631 654 655
3 631 655 632
3 632 655 656
3 632 656 633
3 633 656 657
3 633 657 634
3 634 657 658
3 634 658 635
3 635 658 659
3 635 659 636
3 636 659 660
3 636 660 637
3 637 660 661
3 637 661 638
3 638 661 662
3 638 662 639
3 639 662 663
3 639 663 640
3 640 663 664
3 640 664 641
3 641 664 665
3 641 665 642
3 642 665 666
3 642 666 643
3 643 666 667
3 643 667 644
3 644 667 668
3 644 668 645
3 645 668 669
3 645 669 646
3 646 669 670
3 646 670 647
3 647 670 671
3 647 671 648
3 648 671 672
3 648 672 649
3 649 672 673
3 649 673 650
3 650 673 674
3 650 674 651
3 651 674 675
3 651 675 652
3 652 675 676
3 652 676 653
3 653 676 677
3 653 677 105
3 105 677 104
3 25 26 654
3 654 26 678
3 654 678 655
3 655 678 679
3 655 679 656
3 656 679 680
3 656 680 657
3 657 680 681
3 657 681 658
3 658 681 682
3 658 682 659
3 659 682 683
3 659 683 660
3 660 683 684
3 660 684 661
3 661 684 685
3 661 685 662
3 662 685 686
3 662 686 663
3 663 686 687
3 663 687 664
3 664 687 688
3 664 688 665
3 665 688 689
3 665 689 666
3 666 689 690
3 666 690 667
3 667 690 691
3 667 691 668
3 668 691 692
3 668 692 669
3 669 692 693
3 669 693 670
3 670 693 694
3 670 694 671
3 671 694 695
3 671 695 672
3 672 695 696
3 672 696 673
3 673 696 697
3 673 697 674
3 674 697 698
3 674 698 675
3 675 698 699
3 675 699 676
3 676 699 700
3 676 700 677
3 677 700 701
3 677 701 104
3 104 701 103
3 26 27 678
3 678 27 702
3 678 702 679
3 679 702 703
3 679 703 680
3 680 703 704
3 680 704 681
3 681 704 705
3 681 705 682
3 682 705 706
3 682 706 683
3 683 706 707
3 683 707 684
3 684 707 708
3 684 708 685
3 685 708 709
3 685 709 686
3 686 709 710
3 686 710 687
3 687 710 711
3 687 711 688
3 688 711 712
3 688 712 689
3 689 712 713
3 689 713 690
3 690 713 714
3 690 714 691
3 691 714 715
3 691 715 692
3 692 715 716
3 692 716 693
3 693 716 717
3 693 717 694
3 694 717 718
3 694 718 695
3 695 718 719
3 695 719 696
3 696 719 720
3 696 720 697
3 697 720 721
3 697 721 698
3 698 721 722
3 698 722 699
3 699 722 723
3 699 723 700
3 700 723 724
3 700 724 701
3 701 724 725
3 701 725 103
3 103 725 102
3 27 28 702
3 702 28 726
3 702 726 703
3 703 726 727
3 703 727 704
3 704 727 728
3 704 728 705
3 705 728 729
3 705 729 706
3 706 729 730
3 706 730 707
3 707 730 731
3 707 731 708
3 708 731 732
3 708 732 709
3 709 732 733
3 709 733 710
3 710 733 734
3 710 734 711
3 711 734 735
3 711 735 712
3 712 735 736
3 712 736 713
3 713 736 737
3 713 737 714
3 714 737 738
3 714 738 715
3 715 738 739
3 715 739 716
3 716 739 740
3 716 740 717
3 717 740 741
3 717 741 718
3 718 741 742
3 718 742 719
3 719 742 743
3 719 743 720
3 720 743 744
3 720 744 721
3 721 744 745
3 721 745 722
3 722 745 746
3 722 746 723
3 723 746 747
3 723 747 724
3 724 747 748
3 724 748 725
3 725 748 749
3 725 749 102
3 102 749 101
3 28 29 726
3 726 29 750
3 726 750 727
3 727 750 751
3 727 751 728
3 728 751 752
3 728 752 729
3 729 752 753
3 729 753 730
3 730 753 754
3 730 754 731
3 731 754 755
3 731 755 732
3 732 755 756
3 732 756 733
3 733 756 757
3 733 757 734
3 734 757 758
3 734 758 735
3 735 758 759
3 735 759 736
3 736 759 760
3 736 760 737
3 737 760 761
3 737 761 738
3 738 761 762
3 738 762 739
3 739 762 763
3 739 763 740
3 740 763 764
3 740 764 741
3 741 764 765
3 741 765 742
3 742 765 766
3 742 766 743
3 743 766 767
3 743 767 744
3 744 767 768
3 744 768 745
3 745 768 769
3 745 769 746
3 746 769 770
3 746 770 747
3 747 770 771
3 747 771 748
3 748 771 772
3 748 772 749
3 749 772 773
3 749 773 101
3 101 773 100
3 29 30 750
3 750 30 774
3 750 774 751
3 751 774 775
3 751 775 752
3 752 775 776
3 752 776 753
3 753 776 777
3 753 777 754
3 754 777 778
3 754 778 755
3 755 778 779
3 755 779 756
3 756 779 780
3 756 780 757
3 757 780 781
3 757 781 758
3 758 781 782
3 758 782 759
3 759 782 783
3 759 783 760
3 760 783 784
3 760 784 761
3 761 784 785
3 761 785 762
3 762 785 786
3 762 786 763
3 763 786 787
3 763 787 764
3 764 787 788
3 764 788 765
3 765 788 789
3 765 789 766
3 766 789 790
3 766 790 767
3 767 790 791
3 767 791 768
3 768 791 792
3 768 792 769
3 769 792 793
3 769 793 770
3 770 793 794
3 770 794 771
3 771 794 795
3 771 795 772
3 772 795 796
3 772 796 773
3 773 796 797
3 773 797 100
3 100 797 99
3 30 31 774
3 774 31 798
3 774 798 775
3 775 798 799
3 775 799 776
3 776 799 800
3 776 800 777
3 777 800 801
3 777 801 778
3 778 801 802
3 778 802 779
3 779 802 803
3 779 803 780
3 780 803 804
3 780 804 781
3 781 804 805
3 781 805 782
3 782 805 806
3 782 806 783
3 783 806 807
3 783 807 784
3 784 807 808
3 784 808 785
3 785 808 809
3 785 809 786
3 786 809 810
3 786 810 787
3 787 810 811
3 787 811 788
3 788 811 812
3 788 812 789
3 789 812 813
3 789 813 790
3 790 813 814
3 790 814 791
3 791 814 815
3 791 815 792
3 792 815 816
3 792 816 793
3 793 816 817
3 793 817 794
3 794 817 818
3 794 818 795
3 795 818 819
3 795 819 796
3 796 819 820
3 796 820 797
3 797 820 821
3 797 821 99
3 99 821 98
3 31 32 798
3 798 32 822
3 798 822 799
3 799 822 823
3 799 823 800
3 800 823 824
3 800 824 801
3 801 824 825
3 801 825 802
3 802 825 826
3 802 826 803
3 803 826 827
3 803 827 804
3 804 827 828
3 804 828 805
3 805 828 829
3 805 829 806
3 806 829 830
3 806 830 807
3 807 830 831
3 807 831 808
3 808 831 832
3 808 832 809
3 809 832 833
3 809 833 810
3 810 833 834
3 810 834 811
3 811 834 835
3 811 835 812
3 812 835 836
3 812 836 813
3 813 836 837
3 813 837 814
3 814 837 838
3 814 838 815
3 815 838 839
3 815 839 816
3 816 839 840
3 816 840 817
3 817 840 841
3 817 841 818
3 818 841 842
3 818 842 819
3 819 842 843
3 819 843 820
3 820 843 844
3 820 844 821
3 821 844 845
3 821 845 98
3 98 845 97
3 32 33 822
3 822 33 846
3 822 846 823
3 823 846 847
3 823 847 824
3 824 847 848
3 824 848 825
3 825 848 849
3 825 849 826
3 826 849 850
3 826 850 827
3 827 850 851
3 827 851 828
3 828 851 852
3 828 852 829
3 829 852 853
3 829 853 830
3 830 853 854
3 830 854 831
3 831 854 855
3 831 855 832
3 832 855 856
3 832 856 833
3 833 856 857
3 833 857 834
3 834 857 858
3 834 858 835
3 835 858 859
3 835 859 836
3 836 859 860
3 836 860 837
3 837 860 861
3 837 861 838
3 838 861 862
3 838 862 839
3 839 862 863
3 839 863 840
3 840 863 864
3 840 864 841
3 841 864 865
3 841 865 842
3 842 865 866
3 842 866 843
3 843 866 867
3 843 867 844
3 844 867 868
3 844 868 845
3 845 868 869
3 845 869 97
3 97 869 96
3 33 34 846
3 846 34 870
3 846 870 847
3 847 870 871
3 847 871 848
3 848 871 872
3 848 872 849
3 849 872 873
3 849 873 850
3 850 873 874
3 850 874 851
3 851 874 875
3 851 875 852
3 852 875 876
3 852 876 853
3 853 876 877
3 853 877 854
3 854 877 878
3 854 878 855
3 855 878 879
3 855 879 856
3 856 879 880
3 856 880 857
3 857 880 881
3 857 881 858
3 858 881 882
3 858 882 859
3 859 882 883
3 859 883 860
3 860 883 884
3 860 884 861
3 861 884 885
3 861 885 862
3 862 885 886
3 862 886 863
3 863 886 887
3 863 887 864
3 864 887 888
3 864 888 865
3 865 888 889
3 865 889 866
3 866 889 890
3 866 890 867
3 867 890 891
3 867 891 868
3 868 891 892
3 868 892 869
3 869 892 893
3 869 893 96
3 96 893 95
3 34 35 870
3 870 35 894
3 870 894 871
3 871 894 895
3 871 895 872
3 872 895 896
3 872 896 873
3 873 896 897
3 873 897 874
3 874 897 898
3 874 898 875
3 875 898 899
3 875 899 876
3 876 899 900
3 876 900 877
3 877 900 901
3 877 901 878
3 878 901 902
3 878 902 879
3 879 902 903
3 879 903 880
3 880 903 904
3 880 904 881
3 881 904 905
3 881 905 882
3 882 905 906
3 882 906 883
3 883 906 907
3 883 907 884
3 884 907 908
3 884 908 885
3 885 908 909
3 885 909 886
3 886 909 910
3 886 910 887
3 887 910 911
3 887 911 888
3 888 911 912
3 888 912 889
3 889 912 913
3 889 913 890
3 890 913 914
3 890 914 891
3 891 914 915
3 891 915 892
3 892 915 916
3 892 916 893
3 893 916 917
3 893 917 95
3 95 917 94
3 35 36 894
3 894 36 918
3 894 918 895
3 895 918 919
3 895 919 896
3 896 919 920
3 896 920 897
3 897 920 921
3 897 921 898
3 898 921 922
3 898 922 899
3 899 922 923
3 899 923 900
3 900 923 924
3 900 924 901
3 901 924 925
3 901 925 902
3 902 925 926
3 902 926 903
3 903 926 927
3 903 927 904
3 904 927 928
3 904 928 905
3 905 928 929
3 905 929 906
3 906 929 930
3 906 930 907
3 907 930 931
3 907 931 908
3 908 931 932
3 908 932 909
3 909 932 933
3 909 933 910
3 910 933 934
3 910 934 911
3 911 934 935
3 911 935 912
3 912 935 936
3 912 936 913
3 913 936 937
3 913 937 914
3 914 937 938
3 914 938 915
3 915 938 939
3 915 939 916
3 916 939 940
3 916 940 917
3 917 940 941
3 917 941 94
3 94 941 93
3 36 37 918
3 918 37 942
3 918 942 919
3 919 942 943
3 919 943 920
3 920 943 944
3 920 944 921
3 921 944 945
3 921 945 922
3 922 945 946
3 922 946 923
3 923 946 947
3 923 947 924
3 924 947 948
3 924 948 925
3 925 948 949
3 925 949 926
3 926 949 950
3 926 950 927
3 927 950 951
3 927 951 928
3 928 951 952
3 928 952 929
3 929 952 953
3 929 953 930
3 930 953 954
3 930 954 931
3 931 954 955
3 931 955 932
3 932 955 956
3 932 956 933
3 933 956 957
3 933 957 934
3 934 957 958
3 934 958 935
3 935 958 959
3 935 959 936
3 936 959 960
3 936 960 937
3 937 960 961
3 937 961 938
3 938 961 962
3 938 962 939
3 939 962 963
3 939 963 940
3 940 963 964
3 940 964 941
3 941 964 965
3 941 965 93
3 93 965 92
3 37 38 942
3 942 38 966
3 942 966 943
3 943 966 967
3 943 967 944
3 944 967 968
3 944 968 945
3 945 968 969
3 945 969 946
3 946 969 970
3 946 970 947
3 947 970 971
3 947 971 948
3 948 971 972
3 948 972 949
3 949 972 973
3 949 973 950
3 950 973 974
3 950 974 951
3 951 974 975
3 951 975 952
3 952 975 976
3 952 976 953
3 953 976 977
3 953 977 954
3 954 977 978
3 954 978 955
3 955 978 979
3 955 979 956
3 956 979 980
3 956 980 957
3 957 980 981
3 957 981 958
3 958 981 982
3 958 982 959
3 959 982 983
3 959 983 960
3 960 983 984
3 960 984 961
3 961 984 985
3 961 985 962
3 962 985 986
3 962 986 963
3 963 986 987
3 963 987 964
3 964 987 988
3 964 988 965
3 965 988 989
3 965 989 92
3 92 989 91
3 38 39 966
3 966 39 990
3 966 990 967
3 967 990 991
3 967 991 968
3 968 991 992
3 968 992 969
3 969 992 993
3 969 993 970
3 970 993 994
3 970 994 971
3 971 994 995
3 971 995 972
3 972 995 996
3 972 996 973
3 973 996 997
3 973 997 974
3 974 997 998
3 974 998 975
3 975 998 999
3 975 999 976
3 976 999 1000
3 976 1000 977
3 977 1000 1001
3 977 1001 978
3 978 1001 1002
3 978 1002 979
3 979 1002 1003
3 979 1003 980
3 980 1003 1004
3 980 1004 981
3 981 1004 1005
3 981 1005 982
3 982 1005 1006
3 982 1006 983
3 983 1006 1007
3 983 1007 984
3 984 1007 1008
3 984 1008 985
3 985 1008 1009
3 985 1009 986
3 986 1009 1010
3 986 1010 987
3 987 1010 1011
3 987 1011 988
3 988 1011 1012
3 988 1012 989
3 989 1012 1013
3 989 1013 91
3 91 1013 90
3 39 40 990
3 990 40 1014
3 990 1014 991
3 991 1014 1015
3 991 1015 992
3 992 1015 1016
3 992 1016 993
3 993 1016 1017
3 993 1017 994
3 994 1017 1018
3 994 1018 995
3 995 1018 1019
3 995 1019 996
3 996 1019 1020
3 996 1020 997
3 997 1020 1021
3 997 1021 998
3 998 1021 1022
3 998 1022 999
3 999 1022 1023
3 999 1023 1000
3 1000 1023 1024
3 1000 1024 1001
3 1001 1024 1025
3 1001 1025 1002
3 1002 1025 1026
3 1002 1026 1003
3 1003 1026 1027
3 1003 1027 1004
3 1004 1027 1028
3 1004 1028 1005
3 1005 1028 1029
3 1005 1029 1006
3 1006 1029 1030
3 1006 1030 1007
3 1007 1030 1031
3 1007 1031 1008
3 1008 1031 1032
3 1008 1032 1009
3 1009 1032 1033
3 1009 1033 1010
3 1010 1033 1034
3 1010 1034 1011
3 1011 1034 1035
3 1011 1035 1012
3 1012 1035 1036
3 1012 1036 1013
3 1013 1036 1037
3 1013 1037 90
3 90 1037 89
3 40 41 1014
3 1014 41 1038
3 1014 1038 1015
3 1015 1038 1039
3 1015 1039 1016
3 1016 1039 1040
3 1016 1040 1017
3 1017 1040 1041
3 1017 1041 1018
3 1018 1041 1042
3 1018 1042 1019
3 1019 1042 1043
3 1019 1043 1020
3 1020 1043 1044
3 1020 1044 1021
3 1021 1044 1045
3 1021 1045 1022
3 1022 1045 1046
3 1022 1046 1023
3 1023 1046 1047
3 1023 1047 1024
3 1024 1047 1048
3 1024 1048 1025
3 1025 1048 1049
3 1025 1049 1026
3 1026 1049 1050
3 1026 1050 1027
3 1027 1050 1051
3 1027 1051 1028
3 1028 1051 1052
3 1028 1052 1029
3 1029 1052 1053
3 1029 1053 1030
3 1030 1053 1054
3 1030 1054 1031
3 1031 1054 1055
3 1031 1055 1032
3 1032 1055 1056
3 1032 1056 1033
3 1033 1056 1057
3 1033 1057 1034
3 1034 1057 1058
3 1034 1058 1035
3 1035 1058 1059
3 1035 1059 1036
3 1036 1059 1060
3 1036 1060 1037
3 1037 1060 1061
3 1037 1061 89
3 89 1061 88
3 41 42 1038
3 1038 42 1062
3 1038 1062 1039
3 1039 1062 1063
3 1039 1063 1040
3 1040 1063 1064
3 1040 1064 1041
3 1041 1064 1065
3 1041 1065 1042
3 1042 1065 1066
3 1042 1066 1043
3 1043 1066 1067
3 1043 1067 1044
3 1044 1067 1068
3 1044 1068 1045
3 1045 1068 1069
3 1045 1069 1046
3 1046 1069 1070
3 1046 1070 1047
3 1047 1070 1071
3 1047 1071 1048
3 1048 1071 1072
3 1048 1072 1049
3 1049 1072 1073
3 1049 1073 1050
3 1050 1073 1074
3 1050 1074 1051
3 1051 1074 1075
3 1051 1075 1052
3 1052 1075 1076
3 1052 1076 1053
3 1053 1076 1077
3 1053 1077 1054
3 1054 1077 1078
3 1054 1078 1055
3 1055 1078 1079
3 1055 1079 1056
3 1056 1079 1080
3 1056 1080 1057
3 1057 1080 1081
3 1057 1081 1058
3 1058 1081 1082
3 1058 1082 1059
3 1059 1082 1083
3 1059 1083 1060
3 1060 1083 1084
3 1060 1084 1061
3 1061 1084 1085
3 1061 1085 88
3 88 1085 87
3 42 43 1062
3 1062 43 1086
3 1062 1086 1063
3 1063 1086 1087
3 1063 1087 1064
3 1064 1087 1088
3 1064 1088 1065
3 1065 1088 1089
3 1065 1089 1066
3 1066 1089 1090
3 1066 1090 1067
3 1067 1090 1091
3 1067 1091 1068
3 1068 1091 1092
3 1068 1092 1069
3 1069 1092 1093
3 1069 1093 1070
3 1070 1093 1094
3 1070 1094 1071
3 1071 1094 1095
3 1071 1095 1072
3 1072 1095 1096
3 1072 1096 1073
3 1073 1096 1097
3 1073 1097 1074
3 1074 1097 1098
3 1074 1098 1075
3 1075 1098 1099
3 1075 1099 1076
3 1076 1099 1100
3 1076 1100 1077
3 1077 1100 1101
3 1077 1101 1078
3 1078 1101 1102
3 1078 1102 1079
3 1079 1102 1103
3 1079 1103 1080
3 1080 1103 1104
3 1080 1104 1081
3 1081 1104 1105
3 1081 1105 1082
3 1082 1105 1106
3 1082 1106 1083
3 1083 1106 1107
3 1083 1107 1084
3 1084 1107 1108
3 1084 1108 1085
3 1085 1108 1109
3 1085 1109 87
3 87 1109 86
3 43 44 1086
3 1086 44 1110
3 1086 1110 1087
3 1087 1110 1111
3 1087 1111 1088
3 1088 1111 1112
3 1088 1112 1089
3 1089 1112 1113
3 1089 1113 1090
3 1090 1113 1114
3 1090 1114 1091
3 1091 1114 1115
3 1091 1115 1092
3 1092 1115 1116
3 1092 1116 1093
3 1093 1116 1117
3 1093 1117 1094
3 1094 1117 1118
3 1094 1118 1095
3 1095 1118 1119
3 1095 1119 1096
3 1096 1119 1120
3 1096 1120 1097
3 1097 1120 1121
3 1097 1121 1098
3 1098 1121 1122
3 1098 1122 1099
3 1099 1122 1123
3 1099 1123 1100
3 1100 1123 1124
3 1100 1124 1101
3 1101 1124 1125
3 1101 1125 1102
3 1102 1125 1126
3 1102 1126 1103
3 1103 1126 1127
3 1103 1127 1104
3 1104 1127 1128
3 1104 1128 1105
3 1105 1128 1129
3 1105 1129 1106
3 1106 1129 1130
3 1106 1130 1107
3 1107 1130 1131
3 1107 1131 1108
3 1108 1131 1132
3 1108 1132 1109
3 1109 1132 1133
3 1109 1133 86
3 86 1133 85
3 44 45 1110
3 1110 45 1134
3 1110 1134 1111
3 1111 1134 1135
3 1111 1135 1112
3 1112 1135 1136
3 1112 1136 1113
3 1113 1136 1137
3 1113 1137 1114
3 1114 1137 1138
3 1114 1138 1115
3 1115 1138 1139
3 1115 1139 1116
3 1116 1139 1140
3 1116 1140 1117
3 1117 1140 1141
3 1117 1141 1118
3 1118 1141 1142
3 1118 1142 1119
3 1119 1142 1143
3 1119 1143 1120
3 1120 1143 1144
3 1120 1144 1121
3 1121 1144 1145
3 1121 1145 1122
3 1122 1145 1146
3 1122 1146 1123
3 1123 1146 1147
3 1123 1147 1124
3 1124 1147 1148
3 1124 1148 1125
3 1125 1148 1149
3 1125 1149 1126
3 1126 1149 1150
3 1126 1150 1127
3 1127 1150 1151
3 1127 1151 1128
3 1128 1151 1152
3 1128 1152 1129
3 1129 1152 1153
3 1129 1153 1130
3 1130 1153 1154
3 1130 1154 1131
3 1131 1154 1155
3 1131 1155 1132
3 1132 1155 1156
3 1132 1156 1133
3 1133 1156 1157
3 1133 1157 85
3 85 1157 84
3 45 46 1134
3 1134 46 1158
3 1134 1158 1135
3 1135 1158 1159
3 1135 1159 1136
3 1136 1159 1160
3 1136 1160 1137
3 1137 1160 1161
3 1137 1161 1138
3 1138 1161 1162
3 1138 1162 1139
3 1139 1162 1163
3 1139 1163 1140
3 1140 1163 1164
3 1140 1164 1141
3 1141 1164 1165
3 1141 1165 1142
3 1142 1165 1166
3 1142 1166 1143
3 1143 1166 1167
3 1143 1167 1144
3 1144 1167 1168
3 1144 1168 1145
3 1145 1168 1169
3 1145 1169 1146
3 1146 1169 1170
3 1146 1170 1147
3 1147 1170 1171
3 1147 1171 1148
3 1148 1171 1172
3 1148 1172 1149
3 1149 1172 1173
3 1149 1173 1150
3 1150 1173 1174
3 1150 1174 1151
3 1151 1174 1175
3 1151 1175 1152
3 1152 1175 1176
3 1152 1176 1153
3 1153 1176 1177
3 1153 1177 1154
3 1154 1177 1178
3 1154 1178 1155
3 1155 1178 1179
3 1155 1179 1156
3 1156 1179 1180
3 1156 1180 1157
3 1157 1180 1181
3 1157 1181 84
3 84 1181 83
3 46 47 1158
3 1158 47 1182
3 1158 1182 1159
3 1159 1182 1183
3 1159 1183 1160
3 1160 1183 1184
3 1160 1184 1161
3 1161 1184 1185
3 1161 1185 1162
3 1162 1185 1186
3 1162 1186 1163
3 1163 1186 1187
3 1163 1187 1164
3 1164 1187 1188
3 1164 1188 1165
3 1165 1188 1189
3 1165 1189 1166
3 1166 1189 1190
3 1166 1190 1167
3 1167 1190 1191
3 1167 1191 1168
3 1168 1191 1192
3 1168 1192 1169
3 1169 1192 1193
3 1169 1193 1170
3 1170 1193 1194
3 1170 1194 1171
3 1171 1194 1195
3 1171 1195 1172
3 1172 1195 1196
3 1172 1196 1173
3 1173 1196 1197
3 1173 1197 1174
3 1174 1197 1198
3 1174 1198 1175
3 1175 1198 1199
3 1175 1199 1176
3 1176 1199 1200
3 1176 1200 1177
3 1177 1200 1201
3 1177 1201 1178
3 1178 1201 1202
3 1178 1202 1179
3 1179 1202 1203
3 1179 1203 1180
3 1180 1203 1204
3 1180 1204 1181
3 1181 1204 1205
3 1181 1205 83
3 83 1205 82
3 47 48 1182
3 1182 48 1206
3 1182 1206 1183
3 1183 1206 1207
3 1183 1207 1184
3 1184 1207 1208
3 1184 1208 1185
3 1185 1208 1209
3 1185 1209 1186
3 1186 1209 1210
3 1186 1210 1187
3 1187 1210 1211
3 1187 1211 1188
3 1188 1211 1212
3 1188 1212 1189
3 1189 1212 1213
3 1189 1213 1190
3 1190 1213 1214
3 1190 1214 1191
3 1191 1214 1215
3 1191 1215 1192
3 1192 1215 1216
3 1192 1216 1193
3 1193 1216 1217
3 1193 1217 1194
3 1194 1217 1218
3 1194 1218 1195
3 1195 1218 1219
3 1195 1219 1196
3 1196 1219 1220
3 1196 1220 1197
3 1197 1220 1221
3 1197 1221 1198
3 1198 1221 1222
3 1198 1222 1199
3 1199 1222 1223
3 1199 1223 1200
3 1200 1223 1224
3 1200 1224 1201
3 1201 1224 1225
3 1201 1225 1202
3 1202 1225 1226
3 1202 1226 1203
3 1203 1226 1227
3 1203 1227 1204
3 1204 1227 1228
3 1204 1228 1205
3 1205 1228 1229
3 1205 1229 82
3 82 1229 81
3 48 49 1206
3 1206 49 1230
3 1206 1230 1207
3 1207 1230 1231
3 1207 1231 1208
3 1208 1231 1232
3 1208 1232 1209
3 1209 1232 1233
3 1209 1233 1210
3 1210 1233 1234
3 1210 1234 1211
3 1211 1234 1235
3 1211 1235 1212
3 1212 1235 1236
3 1212 1236 1213
3 1213 1236 1237
3 1213 1237 1214
3 1214 1237 1238
3 1214 1238 1215
3 1215 1238 1239
3 1215 1239 1216
3 1216 1239 1240
3 1216 1240 1217
3 1217 1240 1241
3 1217 1241 1218
3 1218 1241 1242
3 1218 1242 1219
3 1219 1242 1243
3 1219 1243 1220
3 1220 1243 1244
3 1220 1244 1221
3 1221 1244 1245
3 1221 1245 1222
3 1222 1245 1246
3 1222 1246 1223
3 1223 1246 1247
3 1223 1247 1224
3 1224 1247 1248
3 1224 1248 1225
3 1225 1248 1249
3 1225 1249 1226
3 1226 1249 1250
3 1226 1250 1227
3 1227 1250 1251
3 1227 1251 1228
3 1228 1251 1252
3 1228 1252 1229
3 1229 1252 1253
3 1229 1253 81
3 81 1253 80
3 49 50 1230
3 1230 50 1254
3 1230 1254 1231
3 1231 1254 1255
3 1231 1255 1232
3 1232 1255 1256
3 1232 1256 1233
3 1233 1256 1257
3 1233 1257 1234
3 1234 1257 1258
3 1234 1258 1235
3 1235 1258 1259
3 1235 1259 1236
3 1236 1259 1260
3 1236 1260 1237
3 1237 1260 1261
3 1237 1261 1238
3 1238 1261 1262
3 1238 1262 1239
3 1239 1262 1263
3 1239 1263 1240
3 1240 1263 1264
3 1240 1264 1241
3 1241 1264 1265
3 1241 1265 1242
3 1242 1265 1266
3 1242 1266 1243
3 1243 1266 1267
3 1243 1267 1244
3 1244 1267 1268
3 1244 1268 1245
3 1245 1268 1269
3 1245 1269 1246
3 1246 1269 1270
3 1246 1270 1247
3 1247 1270 1271
3 1247 1271 1248
3 1248 1271 1272
3 1248 1272 1249
3 1249 1272 1273
3 1249 1273 1250
3 1250 1273 1274
3 1250 1274 1251
3 1251 1274 1275
3 1251 1275 1252
3 1252 1275 1276
3 1252 1276 1253
3 1253 1276 1277
3 1253 1277 80
3 80 1277 79
3 50 51 1254
3 1254 51 1278
3 1254 1278 1255
3 1255 1278 1279
3 1255 1279 1256
3 1256 1279 1280
3 1256 1280 1257
3 1257 1280 1281
3 1257 1281 1258
3 1258 1281 1282
3 1258 1282 1259
3 1259 1282 1283
3 1259 1283 1260
3 1260 1283 1284
3 1260 1284 1261
3 1261 1284 1285
3 1261 1285 1262
3 1262 1285 1286
3 1262 1286 1263
3 1263 1286 1287
3 1263 1287 1264
3 1264 1287 1288
3 1264 1288 1265
3 1265 1288 1289
3 1265 1289 1266
3 1266 1289 1290
3 1266 1290 1267
3 1267 1290 1291
3 1267 1291 1268
3 1268 1291 1292
3 1268 1292 1269
3 1269 1292 1293
3 1269 1293 1270
3 1270 1293 1294
3 1270 1294 1271
3 1271 1294 1295
3 1271 1295 1272
3 1272 1295 1296
3 1272 1296 1273
3 1273 1296 1297
3 1273 1297 1274
3 1274 1297 1298
3 1274 1298 1275
3 1275 1298 1299
3 1275 1299 1276
3 1276 1299 1300
3 1276 1300 1277
3 1277 1300 1301
3 1277 1301 79
3 79 1301 78
3 51 52 1278
3 1278 52 1302
3 1278 1302 1279
3 1279 1302 1303
3 1279 1303 1280
3 1280 1303 1304
3 1280 1304 1281
3 1281 1304 1305
3 1281 1305 1282
3 1282 1305 1306
3 1282 1306 1283
3 1283 1306 1307
3 1283 1307 1284
3 1284 1307 1308
3 1284 1308 1285
3 1285 1308 1309
3 1285 1309 1286
3 1286 1309 1310
3 1286 1310 1287
3 1287 1310 1311
3 1287 1311 1288
3 1288 1311 1312
3 1288 1312 1289
3 1289 1312 1313
3 1289 1313 1290
3 1290 1313 1314
3 1290 1314 1291
3 1291 1314 1315
3 1291 1315 1292
3 1292 1315 1316
3 1292 1316 1293
3 1293 1316 1317
3 1293 1317 1294
3 1294 1317 1318
3 1294 1318 1295
3 1295 1318 1319
3 1295 1319 1296
3 1296 1319 1320
3 1296 1320 1297
3 1297 1320 1321
3 1297 1321 1298
3 1298 1321 1322
3 1298 1322 1299
3 1299 1322 1323
3 1299 1323 1300
3 1300 1323 1324
3 1300 1324 1301
3 1301 1324 1325
3 1301 1325 78
3 78 1325 77
3 52 1 1302
3 1302 1 53
3 1302 53 1303
3 1303 53 54
3 1303 54 1304
3 1304 54 55
3 1304 55 1305
3 1305 55 56
3 1305 56 1306
3 1306 56 57
3 1306 57 1307
3 1307 57 58
3 1307 58 1308
3 1308 58 59
3 1308 59 1309
3 1309 59 60
3 1309 60 1310
3 1310 60 61
3 1310 61 1311
3 1311 61 62
3 1311 62 1312
3 1312 62 63
3 1312 63 1313
3 1313 63 64
3 1313 64 1314
3 1314 64 65
3 1314 65 1315
3 1315 65 66
3 1315 66 1316
3 1316 66 67
3 1316 67 1317
3 1317 67 68
3 1317 68 1318
3 1318 68 69
3 1318 69 1319
3 1319 69 70
3 1319 70 1320
3 1320 70 71
3 1320 71 1321
3 1321 71 72
3 1321 72 1322
3 1322 72 73
3 1322 73 1323
3 1323 73 74
3 1323 74 1324
3 1324 74 75
3 1324 75 1325
3 1325 75 76
3 1325 76 77
3 77 76 2
POINT_DATA 1326
VECTORS U float
0.000000 -0.000000 0.000000
-1.850006 6.706086 0.000000
-5.634412 6.738497 0.000000
-0.000046 0.000038 0.000000
0.000352 0.095366 0.000000
0.001311 0.189148 0.000000
0.003383 0.276768 0.000000
0.006535 0.357041 0.000000
0.010522 0.433765 0.000000
0.018053 0.506239 0.000000
0.030712 0.575646 0.000000
0.048149 0.643885 0.000000
0.070180 0.712448 0.000000
0.095959 0.783478 0.000000
0.124567 0.858495 0.000000
0.154665 0.938440 0.000000
0.185093 1.024184 0.000000
0.214854 1.116311 0.000000
0.242658 1.215118 0.000000
0.267602 1.320800 0.000000
0.288909 1.433505 0.000000
0.305804 1.552775 0.000000
0.317723 1.678546 0.000000
0.324324 1.810257 0.000000
0.325147 1.947615 0.000000
0.320113 2.090073 0.000000
0.308976 2.237380 0.000000
0.291796 2.388851 0.000000
0.268509 2.544149 0.000000
0.239267 2.702881 0.000000
0.204100 2.864567 0.000000
0.163155 3.028873 0.000000
0.116635 3.195383 0.000000
0.064696 3.363812 0.000000
0.007508 3.533887 0.000000
-0.054726 3.705169 0.000000
-0.121828 3.877470 0.000000
-0.193593 4.050547 0.000000
-0.269796 4.223989 0.000000
-0.350368 4.397746 0.000000
-0.435008 4.571469 0.000000
-0.523561 4.744822 0.000000
-0.615967 4.917742 0.000000
-0.711951 5.089932 0.000000
-0.811339 5.261126 0.000000
-0.914131 5.430923 0.000000
-1.020192 5.599271 0.000000
-1.129059 5.765981 0.000000
-1.241131 5.930221 0.000000
-1.356269 6.092047 0.000000
-1.473918 6.251083 0.000000
-1.594357 6.406848 0.000000
-1.719319 6.558392 0.000000
-1.982455 6.697133 0.000000
-2.107346 6.693872 0.000000
-2.228434 6.693354 0.000000
-2.349268 6.694858 0.000000
-2.470437 6.698671 0.000000
-2.592387 6.704441 0.000000
-2.715542 6.711375 0.000000
-2.840652 6.719161 0.000000
-2.968043 6.727601 0.000000
-3.097518 6.736623 0.000000
-3.229876 6.745989 0.000000
-3.365233 6.755392 0.000000
-3.504001 6.764536 0.000000
-3.646206 6.773430 0.000000
-3.792212 6.781703 0.000000
-3.942399 6.789202 0.000000
-4.097642 6.795832 0.000000
-4.257697 6.801027 0.000000
-4.423340 6.804372 0.000000
-4.595396 6.805655 0.000000
-4.774862 6.804869 0.000000
-4.964128 6.801289 0.000000
-5.165691 6.793400 0.000000
-5.384483 6.776359 0.000000
-5.499854 6.521596 0.000000
-5.379197 6.327774 0.000000
-5.265696 6.146389 0.000000
-5.156550 5.971276 0.000000
-5.050849 5.799989 0.000000
-4.947682 5.631267 0.000000
-4.846048 5.464985 0.000000
-4.744846 5.299840 0.000000
-4.644105 5.136209 0.000000
-4.543616 4.973487 0.000000
-4.443114 4.811389 0.000000
-4.342184 4.649757 0.000000
-4.240673 4.488703 0.000000
-4.138413 4.328293 0.000000
-4.035175 4.168271 0.000000
-3.931109 4.009106 0.000000
-3.826020 3.850784 0.000000
-3.719819 3.693219 0.000000
-3.612648 3.536989 0.000000
-3.504376 3.381986 0.000000
-3.395096 3.228302 0.000000
-3.284960 3.076450 0.000000
-3.173873 2.926432 0.000000
-3.061965 2.778329 0.000000
-2.949432 2.632580 0.000000
-2.836240 2.489288 0.000000
-2.722468 2.348550 0.000000
-2.608273 2.210621 0.000000
-2.493749 2.075750 0.000000
-2.378922 1.943963 0.000000
-2.263894 1.815521 0.000000
-2.148790 1.690817 0.000000
-2.033592 1.569593 0.000000
-1.918280 1.452159 0.000000
-1.803019 1.338889 0.000000
-1.687770 1.229617 0.000000
-1.572350 1.124843 0.000000
-1.456919 1.024456 0.000000
-1.341176 0.929101 0.000000
-1.224932 0.837951 0.000000
-1.108289 0.751751 0.000000
-0.990223 0.671398 0.000000
-0.870710 0.593806 0.000000
-0.748412 0.527059 0.000000
-0.618462 0.460804 0.000000
-0.480212 0.393572 0.000000
-0.320052 0.335006 0.000000
-0.146953 0.250723 0.000000
-0.031624 0.133758 0.000000
0.000004 0.000000 0.000000
0.000012 0.000000 0.000000
0.000009 0.000002 0.000000
0.000007 0.000005 0.000000
0.000008 0.000003 0.000000
0.000006 -0.000002 0.000000
0.000001 -0.000003 0.000000
0.000000 0.000000 0.000000
0.000001 0.000001 0.000000
0.000000 -0.000002 0.000000
0.000000 -0.000001 0.000000
0.000000 0.000002 0.000000
0.000000 0.000001 0.000000
0.000000 -0.000000 0.000000
0.000001 0.000001 0.000000
0.000001 0.000002 0.000000
0.000001 0.000001 0.000000
0.000001 0.000000 0.000000
0.000001 0.000001 0.000000
0.000001 0.000001 0.000000
0.000000 0.000001 0.000000
0.000000 0.000000 0.000000
-0.000000 0.000001 0.000000
-0.000000 0.000000 0.000000
0.000345 0.094680 0.000000
0.000437 0.093870 0.000000
0.000597 0.092769 0.000000
0.000799 0.091179 0.000000
0.001175 0.088828 0.000000
0.001802 0.085398 0.000000
0.002461 0.080580 0.000000
0.002978 0.074329 0.000000
0.003571 0.066840 0.000000
0.004287 0.058098 0.000000
0.004618 0.048159 0.000000
0.004480 0.037774 0.000000
0.004649 0.027488 0.000000
0.005153 0.016719 0.000000
0.004922 0.005433 0.000000
0.004125 -0.004966 0.000000
0.004219 -0.014200 0.000000
0.004436 -0.023379 0.000000
0.002111 -0.030272 0.000000
-0.002501 -0.029668 0.000000
-0.007742 -0.018316 0.000000
-0.013030 0.003912 0.000000
-0.018901 0.036512 0.000000
-0.020681 0.078377 0.000000
0.001541 0.187503 0.000000
0.002035 0.185601 0.000000
0.002992 0.182961 0.000000
0.004565 0.178593 0.000000
0.006418 0.172178 0.000000
0.008619 0.163915 0.000000
0.011047 0.153145 0.000000
0.013105 0.139625 0.000000
0.014849 0.124450 0.000000
0.016558 0.108183 0.000000
0.017533 0.090125 0.000000
0.017499 0.070746 0.000000
0.017684 0.052013 0.000000
0.018296 0.034148 0.000000
0.017686 0.015318 0.000000
0.015577 -0.003337 0.000000
0.013868 -0.017623 0.000000
0.010312 -0.026429 0.000000
0.000488 -0.029835 0.000000
-0.015560 -0.023042 0.000000
-0.031938 -0.000395 0.000000
-0.043611 0.030254 0.000000
-0.059707 0.069424 0.000000
-0.078373 0.134563 0.000000
0.004045 0.274005 0.000000
0.005679 0.270867 0.000000
0.009060 0.266147 0.000000
0.012939 0.258700 0.000000
0.016970 0.248313 0.000000
0.021918 0.234905 0.000000
0.026626 0.218414 0.000000
0.029880 0.199293 0.000000
0.032591 0.178308 0.000000
0.035568 0.155845 0.000000
0.037173 0.131842 0.000000
0.036469 0.107137 0.000000
0.035654 0.083434 0.000000
0.036410 0.060971 0.000000
0.034895 0.038875 0.000000
0.028076 0.019750 0.000000
0.019853 0.007411 0.000000
0.009066 0.002339 0.000000
-0.010283 0.003849 0.000000
-0.039622 0.014709 0.000000
-0.059169 0.035247 0.000000
-0.078127 0.064460 0.000000
-0.115876 0.115027 0.000000
-0.181207 0.200459 0.000000
0.008269 0.353845 0.000000
0.012906 0.349550 0.000000
0.019410 0.342657 0.000000
0.026349 0.331960 0.000000
0.033854 0.317361 0.000000
0.041218 0.299634 0.000000
0.047293 0.278970 0.000000
0.052082 0.255230 0.000000
0.056231 0.229239 0.000000
0.059261 0.202409 0.000000
0.059908 0.175212 0.000000
0.058685 0.147326 0.000000
0.057381 0.119853 0.000000
0.055384 0.095733 0.000000
0.048110 0.075838 0.000000
0.036233 0.058911 0.000000
0.021346 0.046687 0.000000
0.000805 0.043300 0.000000
-0.029420 0.047383 0.000000
-0.064130 0.057785 0.000000
-0.090417 0.081737 0.000000
-0.136214 0.128971 0.000000
-0.197203 0.197477 0.000000
-0.309405 0.286504 0.000000
0.015991 0.430118 0.000000
0.024904 0.423869 0.000000
0.035094 0.413988 0.000000
0.045693 0.400088 0.000000
0.055941 0.382313 0.000000
0.065090 0.361021 0.000000
0.072674 0.336632 0.000000
0.078666 0.309864 0.000000
0.082959 0.281522 0.000000
0.084897 0.252268 0.000000
0.084525 0.222730 0.000000
0.082419 0.193853 0.000000
0.078127 0.167053 0.000000
0.070111 0.143707 0.000000
0.057221 0.124107 0.000000
0.040000 0.109557 0.000000
0.015670 0.101564 0.000000
-0.014334 0.101112 0.000000
-0.053588 0.107175 0.000000
-0.094516 0.123211 0.000000
-0.141856 0.155380 0.000000
-0.210228 0.204670 0.000000
-0.298308 0.278477 0.000000
-0.441042 0.368190 0.000000
0.028942 0.501707 0.000000
0.042054 0.493797 0.000000
0.056066 0.481687 0.000000
0.069811 0.465187 0.000000
0.082185 0.444787 0.000000
0.092706 0.421076 0.000000
0.101085 0.394510 0.000000
0.107203 0.365908 0.000000
0.110696 0.336213 0.000000
0.111232 0.306026 0.000000
0.108863 0.276216 0.000000
0.103657 0.248075 0.000000
0.094771 0.222768 0.000000
0.080898 0.200991 0.000000
0.061119 0.183902 0.000000
0.035735 0.172562 0.000000
0.002626 0.167226 0.000000
-0.036522 0.169969 0.000000
-0.085222 0.179888 0.000000
-0.137928 0.201935 0.000000
-0.206219 0.240359 0.000000
-0.295867 0.294791 0.000000
-0.412552 0.367705 0.000000
-0.568395 0.446931 0.000000
0.046572 0.570501 0.000000
0.064131 0.561039 0.000000
0.081562 0.547084 0.000000
0.097455 0.528922 0.000000
0.111215 0.506936 0.000000
0.122488 0.481806 0.000000
0.130840 0.454313 0.000000
0.135988 0.425296 0.000000
0.137792 0.395581 0.000000
0.136011 0.365987 0.000000
0.130551 0.337442 0.000000
0.120678 0.311090 0.000000
0.105966 0.288350 0.000000
0.085266 0.269463 0.000000
0.058339 0.255221 0.000000
0.024395 0.246750 0.000000
-0.017683 0.244663 0.000000
-0.066755 0.250370 0.000000
-0.125996 0.265069 0.000000
-0.195520 0.292478 0.000000
-0.283072 0.334370 0.000000
-0.390925 0.388204 0.000000
-0.525248 0.454015 0.000000
-0.687388 0.522764 0.000000
0.069062 0.638058 0.000000
0.090242 0.627677 0.000000
0.110002 0.612691 0.000000
0.127370 0.593500 0.000000
0.141724 0.570806 0.000000
0.152702 0.545403 0.000000
0.159992 0.518063 0.000000
0.163365 0.489585 0.000000
0.162595 0.460856 0.000000
0.157382 0.432803 0.000000
0.147507 0.406568 0.000000
0.132002 0.382677 0.000000
0.111016 0.362268 0.000000
0.082984 0.346031 0.000000
0.048242 0.334946 0.000000
0.005202 0.329655 0.000000
-0.045437 0.330755 0.000000
-0.106548 0.340484 0.000000
-0.177398 0.359491 0.000000
-0.263641 0.389402 0.000000
-0.365874 0.430554 0.000000
-0.490360 0.482223 0.000000
-0.635244 0.541780 0.000000
-0.804113 0.605096 0.000000
0.095245 0.706472 0.000000
0.119096 0.695513 0.000000
0.140265 0.680059 0.000000
0.158107 0.660734 0.000000
0.172088 0.638199 0.000000
0.181861 0.613325 0.000000
0.187216 0.586911 0.000000
0.187838 0.559841 0.000000
0.183582 0.532998 0.000000
0.173888 0.507180 0.000000
0.158767 0.483439 0.000000
0.137262 0.462338 0.000000
0.109123 0.444988 0.000000
0.073637 0.431769 0.000000
0.030407 0.423549 0.000000
-0.021409 0.421314 0.000000
-0.082664 0.426084 0.000000
-0.154549 0.438320 0.000000
-0.238855 0.460043 0.000000
-0.338490 0.490899 0.000000
-0.454677 0.531017 0.000000
-0.590331 0.578333 0.000000
-0.744390 0.632539 0.000000
-0.918639 0.690381 0.000000
0.124108 0.777427 0.000000
0.149378 0.766394 0.000000
0.170991 0.750998 0.000000
0.188324 0.732035 0.000000
0.200932 0.710287 0.000000
0.208666 0.686571 0.000000
0.211121 0.661711 0.000000
0.208141 0.636622 0.000000
0.199486 0.612114 0.000000
0.184724 0.588910 0.000000
0.163584 0.567964 0.000000
0.135479 0.549932 0.000000
0.100073 0.535343 0.000000
0.056772 0.525264 0.000000
0.004778 0.520092 0.000000
-0.056336 0.520784 0.000000
-0.127839 0.528026 0.000000
-0.211005 0.542803 0.000000
-0.307435 0.565259 0.000000
-0.418627 0.595435 0.000000
-0.546106 0.633246 0.000000
-0.691046 0.677117 0.000000
-0.852753 0.726783 0.000000
-1.031731 0.780290 0.000000
0.154306 0.852510 0.000000
0.179999 0.841665 0.000000
0.200970 0.826775 0.000000
0.216806 0.808641 0.000000
0.227196 0.788068 0.000000
0.231903 0.766013 0.000000
0.230641 0.743156 0.000000
0.223350 0.720357 0.000000
0.209565 0.698403 0.000000
0.189194 0.678004 0.000000
0.161540 0.659813 0.000000
0.126731 0.644636 0.000000
0.083490 0.633060 0.000000
0.032255 0.625777 0.000000
-0.028587 0.623344 0.000000
-0.099035 0.626546 0.000000
-0.180838 0.635959 0.000000
-0.274309 0.651753 0.000000
-0.381427 0.674374 0.000000
-0.503010 0.703406 0.000000
-0.639711 0.738819 0.000000
-0.792569 0.779456 0.000000
-0.960650 0.825281 0.000000
-1.144293 0.874995 0.000000
0.184769 0.932686 0.000000
0.209750 0.922315 0.000000
0.229063 0.908209 0.000000
0.242490 0.891312 0.000000
0.249696 0.872360 0.000000
0.250654 0.852199 0.000000
0.245024 0.831543 0.000000
0.232686 0.811229 0.000000
0.213366 0.791904 0.000000
0.186793 0.774319 0.000000
0.152581 0.758991 0.000000
0.110338 0.746708 0.000000
0.059721 0.737775 0.000000
-0.000040 0.733126 0.000000
-0.069347 0.733064 0.000000
-0.149241 0.738147 0.000000
-0.240160 0.748644 0.000000
-0.343652 0.765074 0.000000
-0.459874 0.787208 0.000000
-0.590477 0.814764 0.000000
-0.735066 0.847674 0.000000
-0.894782 0.885185 0.000000
-1.068284 0.927380 0.000000
-1.256219 0.973582 0.000000
0.214428 1.018723 0.000000
0.237524 1.009025 0.000000
0.254218 0.996034 0.000000
0.264363 0.980534 0.000000
0.267715 0.963338 0.000000
0.264204 0.945254 0.000000
0.253573 0.926979 0.000000
0.235763 0.909173 0.000000
0.210448 0.892498 0.000000
0.177445 0.877550 0.000000
0.136327 0.864909 0.000000
0.086858 0.855127 0.000000
0.028392 0.848797 0.000000
-0.039389 0.846251 0.000000
-0.117209 0.848040 0.000000
-0.205688 0.854486 0.000000
-0.305622 0.865871 0.000000
-0.417607 0.882070 0.000000
-0.542311 0.903389 0.000000
-0.680409 0.929326 0.000000
-0.831919 0.959953 0.000000
-0.997458 0.994720 0.000000
-1.176024 1.033893 0.000000
-1.368230 1.077152 0.000000
0.242063 1.111283 0.000000
0.262332 1.102398 0.000000
0.275636 1.090574 0.000000
0.281675 1.076646 0.000000
0.280521 1.061367 0.000000
0.271929 1.045412 0.000000
0.255955 1.029421 0.000000
0.232226 1.014035 0.000000
0.200735 0.999848 0.000000
0.161032 0.987421 0.000000
0.113008 0.977221 0.000000
0.056109 0.969796 0.000000
-0.009869 0.965486 0.000000
-0.085597 0.964832 0.000000
-0.171487 0.968037 0.000000
-0.268082 0.975370 0.000000
-0.375943 0.986922 0.000000
-0.495705 1.002781 0.000000
-0.627795 1.022974 0.000000
-0.772635 1.047279 0.000000
-0.930338 1.075848 0.000000
-1.100955 1.108182 0.000000
-1.284192 1.144646 0.000000
-1.479963 1.184884 0.000000
0.266811 1.210544 0.000000
0.283414 1.202572 0.000000
0.292418 1.192099 0.000000
0.293853 1.179766 0.000000
0.287591 1.166326 0.000000
0.273668 1.152404 0.000000
0.251821 1.138639 0.000000
0.222049 1.125561 0.000000
0.184049 1.113705 0.000000
0.137735 1.103538 0.000000
0.082629 1.095532 0.000000
0.018632 1.090076 0.000000
-0.054875 1.087559 0.000000
-0.138026 1.088217 0.000000
-0.231472 1.092318 0.000000
-0.335544 1.100102 0.000000
-0.450770 1.111740 0.000000
-0.577565 1.127118 0.000000
-0.716110 1.146296 0.000000
-0.866965 1.169024 0.000000
-1.029872 1.195376 0.000000
-1.205264 1.225294 0.000000
-1.392547 1.259117 0.000000
-1.591978 1.296870 0.000000
0.287784 1.316785 0.000000
0.299920 1.309733 0.000000
0.304174 1.300463 0.000000
0.300400 1.289681 0.000000
0.288712 1.278034 0.000000
0.268961 1.266109 0.000000
0.241160 1.254389 0.000000
0.205087 1.243394 0.000000
0.160647 1.233587 0.000000
0.107552 1.225435 0.000000
0.045652 1.219250 0.000000
-0.025425 1.215441 0.000000
-0.105913 1.214242 0.000000
-0.196240 1.216018 0.000000
-0.296707 1.220892 0.000000
-0.407727 1.228938 0.000000
-0.529512 1.240252 0.000000
-0.662575 1.254831 0.000000
-0.806990 1.272844 0.000000
-0.963090 1.294090 0.000000
-1.130779 1.318743 0.000000
-1.310369 1.346549 0.000000
-1.501413 1.377891 0.000000
-1.704176 1.412943 0.000000
0.304338 1.429867 0.000000
0.311478 1.423685 0.000000
0.310356 1.415645 0.000000
0.301058 1.406318 0.000000
0.283577 1.396301 0.000000
0.257899 1.386087 0.000000
0.223908 1.376211 0.000000
0.181526 1.367085 0.000000
0.130569 1.359112 0.000000
0.070929 1.352646 0.000000
0.002294 1.348053 0.000000
-0.075500 1.345599 0.000000
-0.162772 1.345543 0.000000
-0.259761 1.348028 0.000000
-0.366717 1.353245 0.000000
-0.484014 1.361310 0.000000
-0.611846 1.372335 0.000000
-0.750547 1.386218 0.000000
-0.900135 1.403049 0.000000
-1.061006 1.422763 0.000000
-1.232913 1.445563 0.000000
-1.416223 1.471375 0.000000
-1.610702 1.500489 0.000000
-1.816495 1.533076 0.000000
0.315907 1.549647 0.000000
0.317537 1.544274 0.000000
0.310760 1.537282 0.000000
0.295630 1.529253 0.000000
0.272197 1.520692 0.000000
0.240377 1.512078 0.000000
0.200167 1.503814 0.000000
0.151452 1.496299 0.000000
0.094127 1.489871 0.000000
0.027986 1.484874 0.000000
-0.047069 1.481549 0.000000
-0.131304 1.480158 0.000000
-0.224879 1.480868 0.000000
-0.328052 1.483897 0.000000
-0.441092 1.489359 0.000000
-0.564139 1.497313 0.000000
-0.697416 1.507854 0.000000
-0.841154 1.520927 0.000000
-0.995412 1.536655 0.000000
-1.160452 1.554914 0.000000
-1.336216 1.575946 0.000000
-1.522905 1.599785 0.000000
-1.720453 1.626697 0.000000
-1.929083 1.656944 0.000000
0.322124 1.675719 0.000000
0.317898 1.671038 0.000000
0.305163 1.665024 0.000000
0.284028 1.658176 0.000000
0.254458 1.650931 0.000000
0.216506 1.643676 0.000000
0.170079 1.636802 0.000000
0.115131 1.630645 0.000000
0.051534 1.625514 0.000000
-0.020795 1.621655 0.000000
-0.102069 1.619330 0.000000
-0.192354 1.618769 0.000000
-0.291944 1.620125 0.000000
-0.400889 1.623521 0.000000
-0.519420 1.629016 0.000000
-0.647736 1.636685 0.000000
-0.785902 1.646643 0.000000
-0.934198 1.658893 0.000000
-1.092621 1.673537 0.000000
-1.261404 1.690495 0.000000
-1.440569 1.709906 0.000000
-1.630286 1.731805 0.000000
-1.830655 1.756515 0.000000
-2.041771 1.784313 0.000000
0.322617 1.807803 0.000000
0.312299 1.803732 0.000000
0.293467 1.798544 0.000000
0.266179 1.792678 0.000000
0.230511 1.786523 0.000000
0.186389 1.780426 0.000000
0.133846 1.774714 0.000000
0.072779 1.769678 0.000000
0.003135 1.765584 0.000000
-0.075196 1.762698 0.000000
-0.162352 1.761173 0.000000
-0.258407 1.761215 0.000000
-0.363509 1.762936 0.000000
-0.477799 1.766493 0.000000
-0.601394 1.771982 0.000000
-0.734478 1.779406 0.000000
-0.877125 1.788822 0.000000
-1.029506 1.800192 0.000000
-1.191641 1.813661 0.000000
-1.363788 1.829231 0.000000
-1.545921 1.847064 0.000000
-1.738371 1.867226 0.000000
-1.941219 1.889893 0.000000
-2.154601 1.915362 0.000000
0.317223 1.945395 0.000000
0.300666 1.941829 0.000000
0.275636 1.937338 0.000000
0.242209 1.932296 0.000000
0.200404 1.927052 0.000000
0.150247 1.921907 0.000000
0.091681 1.917140 0.000000
0.024690 1.913023 0.000000
-0.050813 1.909782 0.000000
-0.134863 1.907610 0.000000
-0.227556 1.906688 0.000000
-0.329014 1.907168 0.000000
-0.439298 1.909166 0.000000
-0.558537 1.912779 0.000000
-0.686792 1.918076 0.000000
-0.824179 1.925103 0.000000
-0.970792 1.933921 0.000000
-1.126809 1.944499 0.000000
-1.292282 1.956935 0.000000
-1.467427 1.971215 0.000000
-1.652300 1.987515 0.000000
-1.847148 2.005899 0.000000
-2.052132 2.026541 0.000000
-2.267555 2.049744 0.000000
0.305761 2.088063 0.000000
0.282941 2.084916 0.000000
0.251715 2.080988 0.000000
0.212178 2.076622 0.000000
0.164345 2.072102 0.000000
0.108240 2.067720 0.000000
0.043832 2.063715 0.000000
-0.028899 2.060304 0.000000
-0.109966 2.057691 0.000000
-0.199472 2.056076 0.000000
-0.297436 2.055596 0.000000
-0.403908 2.056392 0.000000
-0.519004 2.058530 0.000000
-0.642733 2.062113 0.000000
-0.775236 2.067184 0.000000
-0.916571 2.073793 0.000000
-1.066808 2.082004 0.000000
-1.226107 2.091787 0.000000
-1.394520 2.103214 0.000000
-1.572283 2.116248 0.000000
-1.759509 2.131029 0.000000
-1.956450 2.147657 0.000000
-2.163354 2.166310 0.000000
-2.380503 2.187220 0.000000
0.288257 2.235439 0.000000
0.259159 2.232562 0.000000
0.221806 2.229052 0.000000
0.176240 2.225183 0.000000
0.122505 2.221232 0.000000
0.060602 2.217430 0.000000
-0.009444 2.213997 0.000000
-0.087663 2.211134 0.000000
-0.174101 2.209023 0.000000
-0.268718 2.207815 0.000000
-0.371639 2.207625 0.000000
-0.482808 2.208618 0.000000
-0.602349 2.210833 0.000000
-0.730250 2.214359 0.000000
-0.866602 2.219215 0.000000
-1.011481 2.225403 0.000000
-1.164936 2.232973 0.000000
-1.327146 2.241904 0.000000
-1.498157 2.252284 0.000000
-1.678235 2.264098 0.000000
-1.867508 2.277429 0.000000
-2.066270 2.292378 0.000000
-2.274788 2.309070 0.000000
-2.493360 2.327715 0.000000
0.264706 2.386955 0.000000
0.229423 2.384263 0.000000
0.186032 2.381053 0.000000
0.134564 2.377565 0.000000
0.075077 2.374032 0.000000
0.007589 2.370662 0.000000
-0.067907 2.367665 0.000000
-0.151396 2.365212 0.000000
-0.242883 2.363453 0.000000
-0.342377 2.362546 0.000000
-0.449908 2.362576 0.000000
-0.565465 2.363657 0.000000
-0.689086 2.365845 0.000000
-0.820800 2.369216 0.000000
-0.960634 2.373781 0.000000
-1.108692 2.379545 0.000000
-1.265025 2.386529 0.000000
-1.429789 2.394688 0.000000
-1.603102 2.404076 0.000000
-1.785167 2.414681 0.000000
-1.976213 2.426574 0.000000
-2.176485 2.439823 0.000000
-2.386327 2.454561 0.000000
-2.606083 2.470986 0.000000
0.235185 2.542218 0.000000
0.193832 2.539624 0.000000
0.144525 2.536609 0.000000
0.087330 2.533379 0.000000
0.022277 2.530149 0.000000
-0.050617 2.527105 0.000000
-0.131314 2.524417 0.000000
-0.219819 2.522243 0.000000
-0.316105 2.520745 0.000000
-0.420166 2.520027 0.000000
-0.531993 2.520180 0.000000
-0.651586 2.521301 0.000000
-0.778981 2.523426 0.000000
-0.914146 2.526612 0.000000
-1.057169 2.530873 0.000000
-1.208070 2.536198 0.000000
-1.366954 2.542583 0.000000
-1.533955 2.549976 0.000000
-1.709216 2.558391 0.000000
-1.892978 2.567806 0.000000
-2.085463 2.578272 0.000000
-2.286999 2.589853 0.000000
-2.497906 2.602670 0.000000
-2.718564 2.616859 0.000000
0.199797 2.700826 0.000000
0.152518 2.698242 0.000000
0.097485 2.695305 0.000000
0.034731 2.692222 0.000000
-0.035692 2.689175 0.000000
-0.113748 2.686324 0.000000
-0.199419 2.683840 0.000000
-0.292682 2.681854 0.000000
-0.393490 2.680509 0.000000
-0.501827 2.679918 0.000000
-0.617691 2.680170 0.000000
-0.741021 2.681329 0.000000
-0.871847 2.683397 0.000000
-1.010155 2.686415 0.000000
-1.155987 2.690357 0.000000
-1.309409 2.695204 0.000000
-1.470495 2.700950 0.000000
-1.639437 2.707535 0.000000
-1.816346 2.714961 0.000000
-2.001528 2.723195 0.000000
-2.195192 2.732271 0.000000
-2.397714 2.742222 0.000000
-2.609394 2.753126 0.000000
-2.830650 2.765107 0.000000
0.158679 2.862368 0.000000
0.105667 2.859719 0.000000
0.045075 2.856788 0.000000
-0.023027 2.853756 0.000000
-0.098592 2.850790 0.000000
-0.181609 2.848057 0.000000
-0.272005 2.845701 0.000000
-0.369768 2.843838 0.000000
-0.474837 2.842605 0.000000
-0.587187 2.842087 0.000000
-0.706754 2.842355 0.000000
-0.833511 2.843468 0.000000
-0.967461 2.845437 0.000000
-1.108585 2.848262 0.000000
-1.256919 2.851912 0.000000
-1.412547 2.856337 0.000000
-1.575546 2.861492 0.000000
-1.746097 2.867309 0.000000
-1.924391 2.873760 0.000000
-2.110686 2.880805 0.000000
-2.305276 2.888455 0.000000
-2.508486 2.896729 0.000000
-2.720717 2.905755 0.000000
-2.942340 2.915625 0.000000
0.112006 3.026473 0.000000
0.053436 3.023687 0.000000
-0.012494 3.020683 0.000000
-0.085727 3.017630 0.000000
-0.166247 3.014681 0.000000
-0.253970 3.011992 0.000000
-0.348860 3.009699 0.000000
-0.450871 3.007913 0.000000
-0.559927 3.006739 0.000000
-0.675980 3.006247 0.000000
-0.798975 3.006516 0.000000
-0.928875 3.007585 0.000000
-1.065644 3.009450 0.000000
-1.209275 3.012085 0.000000
-1.359816 3.015441 0.000000
-1.517315 3.019438 0.000000
-1.681930 3.024000 0.000000
-1.853797 3.029049 0.000000
-2.033175 3.034521 0.000000
-2.220317 3.040373 0.000000
-2.415540 3.046603 0.000000
-2.619255 3.053242 0.000000
-2.831784 3.060389 0.000000
-3.053499 3.068094 0.000000
0.059940 3.192726 0.000000
-0.003977 3.189753 0.000000
-0.075037 3.186636 0.000000
-0.153205 3.183512 0.000000
-0.238428 3.180521 0.000000
-0.330631 3.177819 0.000000
-0.429769 3.175526 0.000000
-0.535766 3.173763 0.000000
-0.648542 3.172632 0.000000
-0.768050 3.172198 0.000000
-0.894196 3.172502 0.000000
-1.026933 3.173542 0.000000
-1.166208 3.175307 0.000000
-1.312046 3.177742 0.000000
-1.464460 3.180776 0.000000
-1.623550 3.184325 0.000000
-1.789456 3.188279 0.000000
-1.962371 3.192543 0.000000
-2.142543 3.197034 0.000000
-2.330281 3.201705 0.000000
-2.525918 3.206549 0.000000
-2.729865 3.211527 0.000000
-2.942394 3.216742 0.000000
-3.164013 3.222313 0.000000
0.002645 3.360854 0.000000
-0.066396 3.357654 0.000000
-0.142365 3.354350 0.000000
-0.225235 3.351081 0.000000
-0.314933 3.348001 0.000000
-0.411387 3.345247 0.000000
-0.514537 3.342942 0.000000
-0.624275 3.341199 0.000000
-0.740538 3.340104 0.000000
-0.863208 3.339700 0.000000
-0.992201 3.340011 0.000000
-1.127472 3.341029 0.000000
-1.268968 3.342720 0.000000
-1.416695 3.344991 0.000000
-1.570692 3.347749 0.000000
-1.731068 3.350866 0.000000
-1.897976 3.354217 0.000000
-2.071646 3.357687 0.000000
-2.252360 3.361174 0.000000
-2.440452 3.364625 0.000000
-2.636230 3.368026 0.000000
-2.840151 3.371346 0.000000
-3.052557 3.374734 0.000000
-3.273854 3.378264 0.000000
-0.059669 3.530568 0.000000
-0.133600 3.527073 0.000000
-0.214280 3.523543 0.000000
-0.301640 3.520114 0.000000
-0.395593 3.516931 0.000000
-0.496077 3.514115 0.000000
-0.602988 3.511781 0.000000
-0.716230 3.510031 0.000000
-0.835674 3.508937 0.000000
-0.961228 3.508549 0.000000
-1.092813 3.508883 0.000000
-1.230335 3.509907 0.000000
-1.373749 3.511544 0.000000
-1.523064 3.513684 0.000000
-1.678338 3.516178 0.000000
-1.839684 3.518876 0.000000
-2.007316 3.521625 0.000000
-2.181460 3.524288 0.000000
-2.362445 3.526747 0.000000
-2.550628 3.528931 0.000000
-2.746349 3.530865 0.000000
-2.950077 3.532552 0.000000
-3.162161 3.534082 0.000000
-3.382855 3.535519 0.000000
-0.126785 3.701491 0.000000
-0.205440 3.697695 0.000000
-0.290609 3.693917 0.000000
-0.382233 3.690295 0.000000
-0.480221 3.686968 0.000000
-0.584494 3.684061 0.000000
-0.694930 3.681700 0.000000
-0.811403 3.679972 0.000000
-0.933802 3.678942 0.000000
-1.061997 3.678654 0.000000
-1.195872 3.679059 0.000000
-1.335332 3.680106 0.000000
-1.480363 3.681687 0.000000
-1.630942 3.683663 0.000000
-1.787182 3.685877 0.000000
-1.949219 3.688134 0.000000
-2.117266 3.690262 0.000000
-2.291630 3.692112 0.000000
-2.472632 3.693536 0.000000
-2.660678 3.694477 0.000000
-2.856172 3.694943 0.000000
-3.059491 3.694909 0.000000
-3.270960 3.694522 0.000000
-3.490990 3.693922 0.000000
-0.198585 3.873408 0.000000
-0.281703 3.869264 0.000000
-0.371152 3.865188 0.000000
-0.466817 3.861347 0.000000
-0.568634 3.857867 0.000000
-0.676471 3.854892 0.000000
-0.790203 3.852523 0.000000
-0.909676 3.850850 0.000000
-1.034777 3.849915 0.000000
-1.165292 3.849726 0.000000
-1.301167 3.850228 0.000000
-1.442280 3.851349 0.000000
-1.588586 3.852935 0.000000
-1.740161 3.854801 0.000000
-1.897039 3.856761 0.000000
-2.059464 3.858574 0.000000
-2.227680 3.860055 0.000000
-2.401970 3.861052 0.000000
-2.582797 3.861413 0.000000
-2.770512 3.861069 0.000000
-2.965480 3.860022 0.000000
-3.168267 3.858298 0.000000
-3.379059 3.856101 0.000000
-3.598265 3.853546 0.000000
-0.274798 4.046020 0.000000
-0.362215 4.041490 0.000000
-0.455730 4.037134 0.000000
-0.555249 4.033080 0.000000
-0.660685 4.029469 0.000000
-0.771871 4.026436 0.000000
-0.888644 4.024088 0.000000
-1.010885 4.022479 0.000000
-1.138360 4.021664 0.000000
-1.270961 4.021622 0.000000
-1.408529 4.022292 0.000000
-1.550971 4.023528 0.000000
-1.698268 4.025147 0.000000
-1.850479 4.026919 0.000000
-2.007718 4.028625 0.000000
-2.170231 4.029997 0.000000
-2.338333 4.030817 0.000000
-2.512345 4.030920 0.000000
-2.692714 4.030163 0.000000
-2.879894 4.028475 0.000000
-3.074253 4.025906 0.000000
-3.276320 4.022516 0.000000
-3.486340 4.018461 0.000000
-3.704532 4.013903 0.000000
-0.355314 4.219044 0.000000
-0.446828 4.214167 0.000000
-0.544190 4.209521 0.000000
-0.647376 4.205238 0.000000
-0.756189 4.201493 0.000000
-0.870490 4.198415 0.000000
-0.990088 4.196116 0.000000
-1.114825 4.194648 0.000000
-1.244441 4.194050 0.000000
-1.378820 4.194243 0.000000
-1.517766 4.195115 0.000000
-1.661210 4.196501 0.000000
-1.809163 4.198169 0.000000
-1.961696 4.199843 0.000000
-2.118975 4.201276 0.000000
-2.281317 4.202176 0.000000
-2.449007 4.202313 0.000000
-2.622525 4.201495 0.000000
-2.802277 4.199608 0.000000
-2.988715 4.196597 0.000000
-3.182403 4.192501 0.000000
-3.383564 4.187373 0.000000
-3.592626 4.181457 0.000000
-3.809848 4.174995 0.000000
-0.439974 4.392327 0.000000
-0.535310 4.387049 0.000000
-0.636381 4.382069 0.000000
-0.742989 4.377579 0.000000
-0.854999 4.373726 0.000000
-0.972199 4.370674 0.000000
-1.094420 4.368493 0.000000
-1.221355 4.367260 0.000000
-1.352856 4.366924 0.000000
-1.488662 4.367415 0.000000
-1.628664 4.368563 0.000000
-1.772794 4.370166 0.000000
-1.921046 4.371908 0.000000
-2.073586 4.373509 0.000000
-2.230627 4.374654 0.000000
-2.392499 4.375060 0.000000
-2.559604 4.374491 0.000000
-2.732397 4.372752 0.000000
-2.911358 4.369726 0.000000
-3.096986 4.365346 0.000000
-3.289675 4.359664 0.000000
-3.489983 4.352818 0.000000
-3.698079 4.345134 0.000000
-3.914243 4.336839 0.000000
-0.528474 4.565510 0.000000
-0.627561 4.559822 0.000000
-0.732119 4.554563 0.000000
-0.841986 4.549910 0.000000
-0.957007 4.546020 0.000000
-1.076882 4.543046 0.000000
-1.201426 4.541041 0.000000
-1.330325 4.540072 0.000000
-1.463357 4.540093 0.000000
-1.600279 4.540963 0.000000
-1.741028 4.542460 0.000000
-1.885428 4.544301 0.000000
-2.033697 4.546153 0.000000
-2.185905 4.547676 0.000000
-2.342439 4.548526 0.000000
-2.503607 4.548430 0.000000
-2.669910 4.547128 0.000000
-2.841826 4.544429 0.000000
-3.019794 4.540229 0.000000
-3.204469 4.534486 0.000000
-3.396172 4.527286 0.000000
-3.595524 4.518772 0.000000
-3.802627 4.509251 0.000000
-4.017664 4.499074 0.000000
-0.620799 4.738399 0.000000
-0.723415 4.732332 0.000000
-0.831292 4.726798 0.000000
-0.944253 4.721996 0.000000
-1.062008 4.718118 0.000000
-1.184355 4.715262 0.000000
-1.310950 4.713558 0.000000
-1.441546 4.712994 0.000000
-1.575766 4.713493 0.000000
-1.713519 4.714822 0.000000
-1.854526 4.716723 0.000000
-1.998959 4.718840 0.000000
-2.146834 4.720803 0.000000
-2.298459 4.722227 0.000000
-2.454196 4.722777 0.000000
-2.614479 4.722139 0.000000
-2.779777 4.720084 0.000000
-2.950626 4.716427 0.000000
-3.127612 4.711082 0.000000
-3.311155 4.704030 0.000000
-3.501901 4.695328 0.000000
-3.700122 4.685110 0.000000
-3.906187 4.673750 0.000000
-4.120288 4.661779 0.000000
-0.716739 4.910803 0.000000
-0.822729 4.904314 0.000000
-0.933750 4.898523 0.000000
-1.049582 4.893616 0.000000
-1.169903 4.889819 0.000000
-1.294494 4.887242 0.000000
-1.422909 4.885979 0.000000
-1.554806 4.885934 0.000000
-1.689914 4.886986 0.000000
-1.827992 4.888859 0.000000
-1.969011 4.891203 0.000000
-2.113022 4.893593 0.000000
-2.260203 4.895639 0.000000
-2.411013 4.896939 0.000000
-2.565724 4.897166 0.000000
-2.724936 4.896005 0.000000
-2.889136 4.893241 0.000000
-3.058856 4.888703 0.000000
-3.234692 4.882268 0.000000
-3.417128 4.873915 0.000000
-3.606693 4.863718 0.000000
-3.803836 4.851867 0.000000
-4.008987 4.838796 0.000000
-4.222193 4.825060 0.000000
-0.816117 5.082439 0.000000
-0.925343 5.075536 0.000000
-1.039357 5.069505 0.000000
-1.157877 5.064600 0.000000
-1.280643 5.060984 0.000000
-1.407154 5.058815 0.000000
-1.537029 5.058064 0.000000
-1.669895 5.058692 0.000000
-1.805465 5.060435 0.000000
-1.943508 5.062935 0.000000
-2.084089 5.065729 0.000000
-2.227332 5.068403 0.000000
-2.373631 5.070503 0.000000
-2.523303 5.071658 0.000000
-2.676905 5.071540 0.000000
-2.834933 5.069887 0.000000
-2.997924 5.066473 0.000000
-3.166471 5.061113 0.000000
-3.341020 5.053651 0.000000
-3.522314 5.044103 0.000000
-3.710699 5.032553 0.000000
-3.906851 5.019186 0.000000
-4.111081 5.004395 0.000000
-4.323416 4.988832 0.000000
-0.918861 5.253054 0.000000
-1.031140 5.245818 0.000000
-1.148033 5.239616 0.000000
-1.269093 5.234761 0.000000
-1.393972 5.231433 0.000000
-1.522107 5.229767 0.000000
-1.653143 5.229761 0.000000
-1.786578 5.231194 0.000000
-1.922099 5.233697 0.000000
-2.059673 5.236829 0.000000
-2.199465 5.240093 0.000000
-2.341675 5.243009 0.000000
-2.486794 5.245128 0.000000
-2.635260 5.246151 0.000000
-2.787642 5.245736 0.000000
-2.944426 5.243647 0.000000
-3.106199 5.239661 0.000000
-3.273392 5.233599 0.000000
-3.446814 5.225284 0.000000
-3.626838 5.214740 0.000000
-3.814111 5.201962 0.000000
-4.009171 5.187112 0.000000
-4.212441 5.170603 0.000000
-4.424166 5.153247 0.000000
-1.024799 5.422404 0.000000
-1.140088 5.414812 0.000000
-1.259591 5.408536 0.000000
-1.383049 5.403842 0.000000
-1.509742 5.401001 0.000000
-1.639313 5.400117 0.000000
-1.770993 5.401023 0.000000
-1.904410 5.403352 0.000000
-2.039453 5.406665 0.000000
-2.176206 5.410385 0.000000
-2.314760 5.414051 0.000000
-2.455748 5.417111 0.000000
-2.599603 5.419244 0.000000
-2.746791 5.420157 0.000000
-2.897897 5.419509 0.000000
-3.053443 5.417092 0.000000
-3.213960 5.412724 0.000000
-3.379917 5.406182 0.000000
-3.552125 5.397257 0.000000
-3.730851 5.385862 0.000000
-3.916939 5.371951 0.000000
-4.110900 5.355744 0.000000
-4.313385 5.337721 0.000000
-4.524685 5.318663 0.000000
-1.133839 5.590170 0.000000
-1.251926 5.582282 0.000000
-1.374101 5.576017 0.000000
-1.499592 5.571737 0.000000
-1.628026 5.569637 0.000000
-1.758323 5.569721 0.000000
-1.890083 5.571649 0.000000
-2.023061 5.574962 0.000000
-2.157073 5.579041 0.000000
-2.292515 5.583267 0.000000
-2.429758 5.587168 0.000000
-2.569407 5.590351 0.000000
-2.711950 5.592521 0.000000
-2.857880 5.593390 0.000000
-3.007768 5.592677 0.000000
-3.162202 5.590180 0.000000
-3.321412 5.585707 0.000000
-3.486301 5.578941 0.000000
-3.657129 5.569695 0.000000
-3.834558 5.557741 0.000000
-4.019454 5.543030 0.000000
-4.212528 5.525738 0.000000
-4.414271 5.506315 0.000000
-4.625386 5.485538 0.000000
-1.245873 5.756139 0.000000
-1.366855 5.748024 0.000000
-1.491309 5.741980 0.000000
-1.618855 5.738275 0.000000
-1.748212 5.737169 0.000000
-1.878789 5.738421 0.000000
-2.010101 5.741572 0.000000
-2.141822 5.745872 0.000000
-2.274523 5.750515 0.000000
-2.408365 5.755109 0.000000
-2.544229 5.759209 0.000000
-2.682595 5.762505 0.000000
-2.823903 5.764762 0.000000
-2.968692 5.765764 0.000000
-3.117561 5.765254 0.000000
-3.270824 5.762978 0.000000
-3.428956 5.758665 0.000000
-3.592644 5.752004 0.000000
-3.762141 5.742826 0.000000
-3.938413 5.730709 0.000000
-4.122142 5.715631 0.000000
-4.314182 5.697469 0.000000
-4.515159 5.676539 0.000000
-4.726314 5.653734 0.000000
-1.360960 5.920007 0.000000
-1.484535 5.911743 0.000000
-1.611342 5.905991 0.000000
-1.740257 5.903221 0.000000
-1.870112 5.903468 0.000000
-2.000221 5.906183 0.000000
-2.130124 5.910398 0.000000
-2.260205 5.915321 0.000000
-2.391098 5.920347 0.000000
-2.523599 5.925163 0.000000
-2.658170 5.929451 0.000000
-2.795325 5.932951 0.000000
-2.935596 5.935544 0.000000
-3.079531 5.936939 0.000000
-3.227457 5.936901 0.000000
-3.379595 5.935182 0.000000
-3.536829 5.931414 0.000000
-3.699389 5.925387 0.000000
-3.867612 5.916813 0.000000
-4.042846 5.905059 0.000000
-4.225332 5.890021 0.000000
-4.416052 5.871322 0.000000
-4.616378 5.849218 0.000000
-4.827999 5.824488 0.000000
-1.478838 6.081311 0.000000
-1.605070 6.072999 0.000000
-1.734025 6.068014 0.000000
-1.863687 6.066854 0.000000
-1.993130 6.068759 0.000000
-2.121440 6.072626 0.000000
-2.249270 6.077510 0.000000
-2.377530 6.082733 0.000000
-2.507013 6.087983 0.000000
-2.638166 6.093062 0.000000
-2.771599 6.097654 0.000000
-2.908002 6.101614 0.000000
-3.047490 6.104789 0.000000
-3.190639 6.106903 0.000000
-3.337683 6.107712 0.000000
-3.489103 6.106918 0.000000
-3.645460 6.104200 0.000000
-3.806992 6.099316 0.000000
-3.974212 6.091784 0.000000
-4.148191 6.081003 0.000000
-4.329259 6.066575 0.000000
-4.518884 6.048023 0.000000
-4.718727 6.025274 0.000000
-4.930933 5.998674 0.000000
-1.599606 6.239701 0.000000
-1.728981 6.231780 0.000000
-1.859186 6.228588 0.000000
-1.988369 6.229281 0.000000
-2.115341 6.232448 0.000000
-2.241308 6.236825 0.000000
-2.367139 6.241953 0.000000
-2.493873 6.247351 0.000000
-2.622128 6.252899 0.000000
-2.752331 6.258358 0.000000
-2.885216 6.263588 0.000000
-3.020831 6.268403 0.000000
-3.159890 6.272462 0.000000
-3.302461 6.275645 0.000000
-3.448799 6.277786 0.000000
-3.599752 6.278400 0.000000
-3.755445 6.277219 0.000000
-3.915853 6.273968 0.000000
-4.082396 6.268040 0.000000
-4.255108 6.258965 0.000000
-4.434932 6.246094 0.000000
-4.623663 6.228684 0.000000
-4.823018 6.206057 0.000000
-5.035759 6.177885 0.000000
-1.724425 6.394886 0.000000
-1.856077 6.388640 0.000000
-1.985442 6.387568 0.000000
-2.111461 6.389547 0.000000
-2.235633 6.393057 0.000000
-2.359434 6.397604 0.000000
-2.483734 6.402867 0.000000
-2.609535 6.408570 0.000000
-2.736869 6.414657 0.000000
-2.866729 6.420893 0.000000
-2.999152 6.427110 0.000000
-3.134451 6.433023 0.000000
-3.273068 6.438403 0.000000
-3.415348 6.443102 0.000000
-3.561449 6.446912 0.000000
-3.711923 6.449419 0.000000
-3.866892 6.450280 0.000000
-4.026915 6.449175 0.000000
-4.192679 6.445725 0.000000
-4.364489 6.439343 0.000000
-4.543756 6.429210 0.000000
-4.731506 6.414209 0.000000
-4.930187 6.392983 0.000000
-5.143597 6.364145 0.000000
-1.853483 6.547292 0.000000
-1.983780 6.543368 0.000000
-2.109109 6.543413 0.000000
-2.231601 6.545473 0.000000
-2.353768 6.548848 0.000000
-2.476076 6.553641 0.000000
-2.599716 6.559354 0.000000
-2.724738 6.565814 0.000000
-2.852033 6.572832 0.000000
-2.981701 6.580266 0.000000
-3.113783 6.587852 0.000000
-3.249067 6.595262 0.000000
-3.387700 6.602353 0.000000
-3.529722 6.609057 0.000000
-3.675841 6.614941 0.000000
-3.826037 6.619724 0.000000
-3.980539 6.623177 0.000000
-4.140740 6.624982 0.000000
-4.306151 6.624849 0.000000
-4.477799 6.622234 0.000000
-4.656622 6.616174 0.000000
-4.844104 6.605294 0.000000
-5.042568 6.588016 0.000000
-5.257486 6.561516 0.000000
TENSORS STRESS float
21.489879 5.080559 0.000000
5.080559 21.481584 0.000000
0.000000 0.000000 0.000000
-24269.638506 5.329601 0.000000
5.329601 -24266.713564 0.000000
0.000000 0.000000 0.000000
-80593.409585 1.095090 0.000000
1.095090 -80588.766878 0.000000
0.000000 0.000000 0.000000
1263.229048 7.445296 0.000000
7.445296 1262.857121 0.000000
0.000000 0.000000 0.000000
-4.424452 5.166829 0.000000
5.166829 -4.564115 0.000000
0.000000 0.000000 0.000000
-35.036070 5.125407 0.000000
5.125407 -35.347031 0.000000
0.000000 0.000000 0.000000
29.415305 4.836128 0.000000
4.836128 28.892436 0.000000
0.000000 0.000000 0.000000
22.979431 4.662598 0.000000
4.662598 22.353461 0.000000
0.000000 0.000000 0.000000
47.551482 4.686558 0.000000
4.686558 46.943906 0.000000
0.000000 0.000000 0.000000
136.936332 4.806535 0.000000
4.806535 136.249558 0.000000
0.000000 0.000000 0.000000
205.961555 5.108839 0.000000
5.108839 205.185937 0.000000
0.000000 0.000000 0.000000
302.478378 5.472767 0.000000
5.472767 301.577121 0.000000
0.000000 0.000000 0.000000
393.768597 5.943366 0.000000
5.943366 392.848072 0.000000
0.000000 0.000000 0.000000
501.874428 6.496649 0.000000
6.496649 500.914735 0.000000
0.000000 0.000000 0.000000
597.661736 7.060664 0.000000
7.060664 596.665869 0.000000
0.000000 0.000000 0.000000
684.571163 7.612598 0.000000
7.612598 683.550915 0.000000
0.000000 0.000000 0.000000
756.094872 8.163590 0.000000
8.163590 755.066409 0.000000
0.000000 0.000000 0.000000
801.962018 8.685899 0.000000
8.685899 800.947289 0.000000
0.000000 0.000000 0.000000
806.947642 9.149301 0.000000
9.149301 805.993235 0.000000
0.000000 0.000000 0.000000
782.773039 9.606266 0.000000
9.606266 781.919097 0.000000
0.000000 0.000000 0.000000
698.935033 9.995146 0.000000
9.995146 698.138484 0.000000
0.000000 0.000000 0.000000
563.655949 10.334093 0.000000
10.334093 562.966431 0.000000
0.000000 0.000000 0.000000
376.102128 10.635782 0.000000
10.635782 375.499648 0.000000
0.000000 0.000000 0.000000
129.648703 10.880343 0.000000
10.880343 129.184476 0.000000
0.000000 0.000000 0.000000
-165.135399 11.086732 0.000000
11.086732 -165.450276 0.000000
0.000000 0.000000 0.000000
-523.025272 11.256653 0.000000
11.256653 -523.192367 0.000000
0.000000 0.000000 0.000000
-930.247395 11.394241 0.000000
11.394241 -930.276084 0.000000
0.000000 0.000000 0.000000
-1384.659442 11.484091 0.000000
11.484091 -1384.522541 0.000000
0.000000 0.000000 0.000000
-1884.229522 11.563784 0.000000
11.563784 -1883.922658 0.000000
0.000000 0.000000 0.000000
-2434.182363 11.610959 0.000000
11.610959 -2433.735955 0.000000
0.000000 0.000000 0.000000
-3025.812127 11.629975 0.000000
11.629975 -3025.203363 0.000000
0.000000 0.000000 0.000000
-3652.904503 11.635478 0.000000
11.635478 -3652.137876 0.000000
0.000000 0.000000 0.000000
-4309.755601 11.617866 0.000000
11.617866 -4308.829113 0.000000
0.000000 0.000000 0.000000
-5013.213672 11.595078 0.000000
11.595078 -5012.133325 0.000000
0.000000 0.000000 0.000000
-5747.637330 11.547993 0.000000
11.547993 -5746.419412 0.000000
0.000000 0.000000 0.000000
-6507.028359 11.480943 0.000000
11.480943 -6505.668129 0.000000
0.000000 0.000000 0.000000
-7299.440056 11.413563 0.000000
11.413563 -7297.928357 0.000000
0.000000 0.000000 0.000000
-8118.642806 11.324839 0.000000
11.324839 -8117.012862 0.000000
0.000000 0.000000 0.000000
-8961.304907 11.214866 0.000000
11.214866 -8959.538341 0.000000
0.000000 0.000000 0.000000
-9839.766605 11.104760 0.000000
11.104760 -9837.861871 0.000000
0.000000 0.000000 0.000000
-10740.480713 10.968524 0.000000
10.968524 -10738.514310 0.000000
0.000000 0.000000 0.000000
-11661.528446 10.806246 0.000000
10.806246 -11659.444716 0.000000
0.000000 0.000000 0.000000
-12605.361795 10.636800 0.000000
10.636800 -12603.156416 0.000000
0.000000 0.000000 0.000000
-13565.621550 10.451243 0.000000
10.451243 -13563.341253 0.000000
0.000000 0.000000 0.000000
-14536.865611 10.221236 0.000000
10.221236 -14534.525638 0.000000
0.000000 0.000000 0.000000
-15560.346966 9.927691 0.000000
9.927691 -15557.931208 0.000000
0.000000 0.000000 0.000000
-16547.322820 9.697150 0.000000
9.697150 -16544.851282 0.000000
0.000000 0.000000 0.000000
-17635.597875 9.358011 0.000000
9.358011 -17633.258630 0.000000
0.000000 0.000000 0.000000
-18681.265214 8.887287 0.000000
8.887287 -18678.840842 0.000000
0.000000 0.000000 0.000000
-19576.284620 8.472950 0.000000
8.472950 -19573.700440 0.000000
0.000000 0.000000 0.000000
-20671.335766 7.976508 0.000000
7.976508 -20668.932644 0.000000
0.000000 0.000000 0.000000
-21955.351914 7.311663 0.000000
7.311663 -21953.364135 0.000000
0.000000 0.000000 0.000000
-23525.231701 6.139554 0.000000
6.139554 -23523.245589 0.000000
0.000000 0.000000 0.000000
-21891.284472 5.666607 0.000000
5.666607 -21885.182368 0.000000
0.000000 0.000000 0.000000
-20319.166517 5.872402 0.000000
5.872402 -20311.867362 0.000000
0.000000 0.000000 0.000000
-19572.826683 5.676653 0.000000
5.676653 -19564.753986 0.000000
0.000000 0.000000 0.000000
-19325.033407 5.359151 0.000000
5.359151 -19316.010377 0.000000
0.000000 0.000000 0.000000
-19220.166000 5.244243 0.000000
5.244243 -19209.980714 0.000000
0.000000 0.000000 0.000000
-19443.706192 5.185668 0.000000
5.185668 -19432.712855 0.000000
0.000000 0.000000 0.000000
-19762.755434 5.184815 0.000000
5.184815 -19751.155598 0.000000
0.000000 0.000000 0.000000
-20294.051868 5.072286 0.000000
5.072286 -20281.851545 0.000000
0.000000 0.000000 0.000000
-20808.292938 5.010974 0.000000
5.010974 -20795.577111 0.000000
0.000000 0.000000 0.000000
-21412.771035 4.961341 0.000000
4.961341 -21399.586878 0.000000
0.000000 0.000000 0.000000
-22219.908402 4.885932 0.000000
4.885932 -22206.292177 0.000000
0.000000 0.000000 0.000000
-23155.383852 4.817900 0.000000
4.817900 -23141.465991 0.000000
0.000000 0.000000 0.000000
-24072.067767 4.786489 0.000000
4.786489 -24057.895561 0.000000
0.000000 0.000000 0.000000
-25207.861638 4.673944 0.000000
4.673944 -25193.468434 0.000000
0.000000 0.000000 0.000000
-26409.985498 4.615229 0.000000
4.615229 -26395.471574 0.000000
0.000000 0.000000 0.000000
-27790.326581 4.577460 0.000000
4.577460 -27775.599279 0.000000
0.000000 0.000000 0.000000
-29614.111323 4.466992 0.000000
4.466992 -29599.299458 0.000000
0.000000 0.000000 0.000000
-31311.312585 4.448326 0.000000
4.448326 -31296.623859 0.000000
0.000000 0.000000 0.000000
-33311.914374 4.254293 0.000000
4.254293 -33297.408502 0.000000
0.000000 0.000000 0.000000
-35645.047167 4.007615 0.000000
4.007615 -35630.672439 0.000000
0.000000 0.000000 0.000000
-38902.930420 3.931073 0.000000
3.931073 -38888.363853 0.000000
0.000000 0.000000 0.000000
-43727.413037 4.166495 0.000000
4.166495 -43712.569787 0.000000
0.000000 0.000000 0.000000
-51171.140237 4.538615 0.000000
4.538615 -51156.384304 0.000000
0.000000 0.000000 0.000000
-61948.114245 4.600204 0.000000
4.600204 -61935.652165 0.000000
0.000000 0.000000 0.000000
-64328.432532 -2.071801 0.000000
-2.071801 -64326.969260 0.000000
0.000000 0.000000 0.000000
-53199.918615 -3.239431 0.000000
-3.239431 -53197.864818 0.000000
0.000000 0.000000 0.000000
-45668.669001 -3.271746 0.000000
-3.271746 -45665.014227 0.000000
0.000000 0.000000 0.000000
-40497.476658 -2.965624 0.000000
-2.965624 -40492.714271 0.000000
0.000000 0.000000 0.000000
-37085.088621 -2.770445 0.000000
-2.770445 -37080.083298 0.000000
0.000000 0.000000 0.000000
-34786.759706 -2.923173 0.000000
-2.923173 -34782.071328 0.000000
0.000000 0.000000 0.000000
-33072.580225 -3.144901 0.000000
-3.144901 -33068.034937 0.000000
0.000000 0.000000 0.000000
-31427.714920 -3.263660 0.000000
-3.263660 -31423.026761 0.000000
0.000000 0.000000 0.000000
-29714.783787 -3.344083 0.000000
-3.344083 -29709.816353 0.000000
0.000000 0.000000 0.000000
-28235.034515 -3.364833 0.000000
-3.364833 -28229.795185 0.000000
0.000000 0.000000 0.000000
-26976.178001 -3.436943 0.000000
-3.436943 -26970.699217 0.000000
0.000000 0.000000 0.000000
-25849.722256 -3.579716 0.000000
-3.579716 -25844.007761 0.000000
0.000000 0.000000 0.000000
-24804.303981 -3.725230 0.000000
-3.725230 -24798.331350 0.000000
0.000000 0.000000 0.000000
-23762.187266 -3.888988 0.000000
-3.888988 -23755.872559 0.000000
0.000000 0.000000 0.000000
-22758.739747 -4.019200 0.000000
-4.019200 -22752.085835 0.000000
0.000000 0.000000 0.000000
-21744.755359 -4.197097 0.000000
-4.197097 -21737.765123 0.000000
0.000000 0.000000 0.000000
-20786.500458 -4.367542 0.000000
-4.367542 -20779.134939 0.000000
0.000000 0.000000 0.000000
-19832.973788 -4.535459 0.000000
-4.535459 -19825.251777 0.000000
0.000000 0.000000 0.000000
-18869.107053 -4.733119 0.000000
-4.733119 -18861.012180 0.000000
0.000000 0.000000 0.000000
-17910.213344 -4.889846 0.000000
-4.889846 -17901.719963 0.000000
0.000000 0.000000 0.000000
-16965.921433 -5.042500 0.000000
-5.042500 -16957.068822 0.000000
0.000000 0.000000 0.000000
-15998.943432 -5.223860 0.000000
-5.223860 -15989.725679 0.000000
0.000000 0.000000 0.000000
-15053.005073 -5.363905 0.000000
-5.363905 -15043.390578 0.000000
0.000000 0.000000 0.000000
-14128.920229 -5.485993 0.000000
-5.485993 -14118.963260 0.000000
0.000000 0.000000 0.000000
-13181.775167 -5.630977 0.000000
-5.630977 -13171.490449 0.000000
0.000000 0.000000 0.000000
-12281.685531 -5.747995 0.000000
-5.747995 -12271.052784 0.000000
0.000000 0.000000 0.000000
-11393.800378 -5.844913 0.000000
-5.844913 -11382.848947 0.000000
0.000000 0.000000 0.000000
-10510.166438 -5.937592 0.000000
-5.937592 -10498.912292 0.000000
0.000000 0.000000 0.000000
-9664.099303 -6.017912 0.000000
-6.017912 -9652.552287 0.000000
0.000000 0.000000 0.000000
-8847.833268 -6.074148 0.000000
-6.074148 -8835.998462 0.000000
0.000000 0.000000 0.000000
-8040.518642 -6.143460 0.000000
-6.143460 -8028.415526 0.000000
0.000000 0.000000 0.000000
-7270.499644 -6.192415 0.000000
-6.192415 -7258.146314 0.000000
0.000000 0.000000 0.000000
-6565.809681 -6.214106 0.000000
-6.214106 -6553.204341 0.000000
0.000000 0.000000 0.000000
-5849.802161 -6.260784 0.000000
-6.260784 -5836.931456 0.000000
0.000000 0.000000 0.000000
-5191.020580 -6.267977 0.000000
-6.267977 -5177.937360 0.000000
0.000000 0.000000 0.000000
-4573.615518 -6.319823 0.000000
-6.319823 -4560.296727 0.000000
0.000000 0.000000 0.000000
-3960.426426 -6.336509 0.000000
-6.336509 -3946.837131 0.000000
0.000000 0.000000 0.000000
-3405.575756 -6.362921 0.000000
-6.362921 -3391.749511 0.000000
0.000000 0.000000 0.000000
-2845.549811 -6.447362 0.000000
-6.447362 -2831.408615 0.000000
0.000000 0.000000 0.000000
-2413.603707 -6.383164 0.000000
-6.383164 -2399.191108 0.000000
0.000000 0.000000 0.000000
-1885.649547 -6.605119 0.000000
-6.605119 -1870.942014 0.000000
0.000000 0.000000 0.000000
-1451.055341 -6.556965 0.000000
-6.556965 -1435.764163 0.000000
0.000000 0.000000 0.000000
-1071.457064 -6.742304 0.000000
-6.742304 -1055.866158 0.000000
0.000000 0.000000 0.000000
-289.946089 -7.374754 0.000000
-7.374754 -273.015998 0.000000
0.000000 0.000000 0.000000
-127.524246 -6.809954 0.000000
-6.809954 -108.725457 0.000000
0.000000 0.000000 0.000000
425.591942 -7.542921 0.000000
-7.542921 446.846982 0.000000
0.000000 0.000000 0.000000
2689.414775 -7.265792 0.000000
-7.265792 2718.413073 0.000000
0.000000 0.000000 0.000000
2683.887611 -2.058313 0.000000
-2.058313 2711.907837 0.000000
0.000000 0.000000 0.000000
748.706792 4.262630 0.000000
4.262630 762.273791 0.000000
0.000000 0.000000 0.000000
-791.651882 4.725497 0.000000
4.725497 -791.352139 0.000000
0.000000 0.000000 0.000000
-338.187370 1.541898 0.000000
1.541898 -338.053962 0.000000
0.000000 0.000000 0.000000
-100.070378 -0.691287 0.000000
-0.691287 -100.007774 0.000000
0.000000 0.000000 0.000000
-35.114782 -1.812378 0.000000
-1.812378 -35.080726 0.000000
0.000000 0.000000 0.000000
90.657053 -2.253782 0.000000
-2.253782 90.628414 0.000000
0.000000 0.000000 0.000000
121.608019 -1.982545 0.000000
-1.982545 121.566852 0.000000
0.000000 0.000000 0.000000
63.265868 -1.275319 0.000000
-1.275319 63.245616 0.000000
0.000000 0.000000 0.000000
1.835795 -0.681944 0.000000
-0.681944 1.831155 0.000000
0.000000 0.000000 0.000000
-36.781764 -0.214271 0.000000
-0.214271 -36.771000 0.000000
0.000000 0.000000 0.000000
2.785291 0.405732 0.000000
0.405732 2.784949 0.000000
0.000000 0.000000 0.000000
34.027909 1.114332 0.000000
1.114332 34.013633 0.000000
0.000000 0.000000 0.000000
-11.655130 1.709542 0.000000
1.709542 -11.653288 0.000000
0.000000 0.000000 0.000000
-20.927255 2.251272 0.000000
2.251272 -20.919657 0.000000
0.000000 0.000000 0.000000
24.619145 2.848804 0.000000
2.848804 24.609953 0.000000
0.000000 0.000000 0.000000
15.857156 3.408366 0.000000
3.408366 15.851282 0.000000
0.000000 0.000000 0.000000
-23.596281 3.835078 0.000000
3.835078 -23.585907 0.000000
0.000000 0.000000 0.000000
-14.530690 4.180565 0.000000
4.180565 -14.523876 0.000000
0.000000 0.000000 0.000000
-0.261234 4.474421 0.000000
4.474421 -0.260784 0.000000
0.000000 0.000000 0.000000
-23.175276 4.668779 0.000000
4.668779 -23.165687 0.000000
0.000000 0.000000 0.000000
-33.404460 4.774703 0.000000
4.774703 -33.391041 0.000000
0.000000 0.000000 0.000000
-7.901071 4.852945 0.000000
4.852945 -7.898649 0.000000
0.000000 0.000000 0.000000
13.164292 4.920160 0.000000
4.920160 13.158517 0.000000
0.000000 0.000000 0.000000
14.118032 4.976200 0.000000
4.976200 14.112425 0.000000
0.000000 0.000000 0.000000
15.240117 5.029140 0.000000
5.029140 15.234017 0.000000
0.000000 0.000000 0.000000
12.773954 5.136523 0.000000
5.136523 12.638402 0.000000
0.000000 0.000000 0.000000
3.597323 5.096420 0.000000
5.096420 3.421548 0.000000
0.000000 0.000000 0.000000
8.468189 5.041005 0.000000
5.041005 8.222792 0.000000
0.000000 0.000000 0.000000
13.074210 4.955254 0.000000
4.955254 12.713978 0.000000
0.000000 0.000000 0.000000
16.271506 4.816646 0.000000
4.816646 15.739427 0.000000
0.000000 0.000000 0.000000
19.368138 4.622796 0.000000
4.622796 18.603242 0.000000
0.000000 0.000000 0.000000
17.265958 4.365658 0.000000
4.365658 16.227780 0.000000
0.000000 0.000000 0.000000
14.593864 4.025693 0.000000
4.025693 13.307797 0.000000
0.000000 0.000000 0.000000
14.117962 3.623674 0.000000
3.623674 12.608664 0.000000
0.000000 0.000000 0.000000
12.297939 3.185196 0.000000
3.185196 10.545793 0.000000
0.000000 0.000000 0.000000
6.594570 2.686138 0.000000
2.686138 4.672869 0.000000
0.000000 0.000000 0.000000
4.324634 2.138872 0.000000
2.138872 2.405275 0.000000
0.000000 0.000000 0.000000
4.788515 1.615351 0.000000
1.615351 2.853478 0.000000
0.000000 0.000000 0.000000
3.549615 1.106131 0.000000
1.106131 1.469659 0.000000
0.000000 0.000000 0.000000
-3.628291 0.544431 0.000000
0.544431 -5.685016 0.000000
0.000000 0.000000 0.000000
-8.899244 -0.013110 0.000000
-0.013110 -10.682401 0.000000
0.000000 0.000000 0.000000
-7.166560 -0.453695 0.000000
-0.453695 -8.855284 0.000000
0.000000 0.000000 0.000000
-14.680922 -0.828136 0.000000
-0.828136 -16.310695 0.000000
0.000000 0.000000 0.000000
-1.900508 -1.131412 0.000000
-1.131412 -2.614545 0.000000
0.000000 0.000000 0.000000
60.264734 -1.141752 0.000000
-1.141752 61.308901 0.000000
0.000000 0.000000 0.000000
110.006750 -0.640056 0.000000
-0.640056 113.093725 0.000000
0.000000 0.000000 0.000000
178.525491 0.262163 0.000000
0.262163 183.524848 0.000000
0.000000 0.000000 0.000000
292.752761 1.204531 0.000000
1.204531 299.715333 0.000000
0.000000 0.000000 0.000000
415.873304 2.879409 0.000000
2.879409 424.116946 0.000000
0.000000 0.000000 0.000000
13.787462 5.076424 0.000000
5.076424 13.456202 0.000000
0.000000 0.000000 0.000000
16.967073 5.037933 0.000000
5.037933 16.556367 0.000000
0.000000 0.000000 0.000000
18.397278 5.012275 0.000000
5.012275 17.755850 0.000000
0.000000 0.000000 0.000000
26.315237 4.927066 0.000000
4.927066 25.272956 0.000000
0.000000 0.000000 0.000000
37.452623 4.771573 0.000000
4.771573 36.054280 0.000000
0.000000 0.000000 0.000000
46.457615 4.587747 0.000000
4.587747 44.665038 0.000000
0.000000 0.000000 0.000000
47.687384 4.329597 0.000000
4.329597 45.348215 0.000000
0.000000 0.000000 0.000000
47.794456 3.991041 0.000000
3.991041 45.015759 0.000000
0.000000 0.000000 0.000000
56.783617 3.646502 0.000000
3.646502 53.793670 0.000000
0.000000 0.000000 0.000000
59.168546 3.304315 0.000000
3.304315 55.915264 0.000000
0.000000 0.000000 0.000000
47.563124 2.888046 0.000000
2.888046 43.945007 0.000000
0.000000 0.000000 0.000000
45.339070 2.435543 0.000000
2.435543 41.656638 0.000000
0.000000 0.000000 0.000000
53.228103 2.063944 0.000000
2.063944 49.786829 0.000000
0.000000 0.000000 0.000000
48.161284 1.748324 0.000000
1.748324 44.714449 0.000000
0.000000 0.000000 0.000000
26.353204 1.336277 0.000000
1.336277 22.673569 0.000000
0.000000 0.000000 0.000000
13.304802 0.927890 0.000000
0.927890 10.070218 0.000000
0.000000 0.000000 0.000000
20.196070 0.774265 0.000000
0.774265 18.029100 0.000000
0.000000 0.000000 0.000000
-8.195259 0.683326 0.000000
0.683326 -9.400353 0.000000
0.000000 0.000000 0.000000
-54.784773 0.503070 0.000000
0.503070 -54.715289 0.000000
0.000000 0.000000 0.000000
-43.083003 0.345132 0.000000
0.345132 -40.287652 0.000000
0.000000 0.000000 0.000000
40.977151 0.622222 0.000000
0.622222 46.378829 0.000000
0.000000 0.000000 0.000000
-28.083994 0.382865 0.000000
0.382865 -21.988961 0.000000
0.000000 0.000000 0.000000
96.218400 0.061657 0.000000
0.061657 105.414967 0.000000
0.000000 0.000000 0.000000
985.387484 -0.027555 0.000000
-0.027555 1001.206706 0.000000
0.000000 0.000000 0.000000
20.895273 4.808810 0.000000
4.808810 20.341386 0.000000
0.000000 0.000000 0.000000
44.580171 4.854294 0.000000
4.854294 43.852254 0.000000
0.000000 0.000000 0.000000
65.487312 4.894892 0.000000
4.894892 64.308310 0.000000
0.000000 0.000000 0.000000
61.749990 4.845707 0.000000
4.845707 59.996763 0.000000
0.000000 0.000000 0.000000
79.184185 4.750538 0.000000
4.750538 76.855562 0.000000
0.000000 0.000000 0.000000
98.106995 4.598670 0.000000
4.598670 95.171517 0.000000
0.000000 0.000000 0.000000
87.209958 4.369202 0.000000
4.369202 83.703884 0.000000
0.000000 0.000000 0.000000
79.913331 4.104144 0.000000
4.104144 75.974897 0.000000
0.000000 0.000000 0.000000
95.161432 3.825848 0.000000
3.825848 90.919889 0.000000
0.000000 0.000000 0.000000
94.966929 3.514567 0.000000
3.514567 90.430370 0.000000
0.000000 0.000000 0.000000
65.964472 3.175821 0.000000
3.175821 61.167722 0.000000
0.000000 0.000000 0.000000
54.507950 2.863580 0.000000
2.863580 49.750526 0.000000
0.000000 0.000000 0.000000
66.571684 2.595004 0.000000
2.595004 62.114698 0.000000
0.000000 0.000000 0.000000
52.093517 2.352417 0.000000
2.352417 47.752391 0.000000
0.000000 0.000000 0.000000
-12.761474 2.072317 0.000000
2.072317 -16.904571 0.000000
0.000000 0.000000 0.000000
-46.909633 1.907830 0.000000
1.907830 -50.011940 0.000000
0.000000 0.000000 0.000000
-48.561427 1.734672 0.000000
1.734672 -50.203050 0.000000
0.000000 0.000000 0.000000
-97.436536 1.377427 0.000000
1.377427 -97.756320 0.000000
0.000000 0.000000 0.000000
-131.322386 0.855683 0.000000
0.855683 -130.222221 0.000000
0.000000 0.000000 0.000000
-79.620616 0.536431 0.000000
0.536431 -76.358272 0.000000
0.000000 0.000000 0.000000
49.494773 0.912551 0.000000
0.912551 54.045609 0.000000
0.000000 0.000000 0.000000
-15.069888 0.462673 0.000000
0.462673 -7.725102 0.000000
0.000000 0.000000 0.000000
172.830839 0.682452 0.000000
0.682452 185.203322 0.000000
0.000000 0.000000 0.000000
1162.479134 -2.012820 0.000000
-2.012820 1183.286430 0.000000
0.000000 0.000000 0.000000
47.624655 4.786149 0.000000
4.786149 46.914406 0.000000
0.000000 0.000000 0.000000
88.412133 4.923313 0.000000
4.923313 87.322720 0.000000
0.000000 0.000000 0.000000
108.618129 4.938569 0.000000
4.938569 106.863918 0.000000
0.000000 0.000000 0.000000
119.251939 4.900071 0.000000
4.900071 116.686390 0.000000
0.000000 0.000000 0.000000
137.571604 4.834788 0.000000
4.834788 134.299405 0.000000
0.000000 0.000000 0.000000
145.042767 4.677974 0.000000
4.677974 141.204128 0.000000
0.000000 0.000000 0.000000
142.905858 4.454543 0.000000
4.454543 138.460879 0.000000
0.000000 0.000000 0.000000
140.329735 4.241626 0.000000
4.241626 135.317450 0.000000
0.000000 0.000000 0.000000
142.277563 4.034632 0.000000
4.034632 136.965931 0.000000
0.000000 0.000000 0.000000
134.368912 3.755405 0.000000
3.755405 128.993843 0.000000
0.000000 0.000000 0.000000
108.684394 3.455116 0.000000
3.455116 103.213467 0.000000
0.000000 0.000000 0.000000
84.589305 3.240566 0.000000
3.240566 79.007170 0.000000
0.000000 0.000000 0.000000
72.339709 3.088807 0.000000
3.088807 67.122300 0.000000
0.000000 0.000000 0.000000
41.057869 2.829044 0.000000
2.829044 36.737160 0.000000
0.000000 0.000000 0.000000
-37.360080 2.475438 0.000000
2.475438 -40.946952 0.000000
0.000000 0.000000 0.000000
-99.094540 2.287972 0.000000
2.287972 -102.080721 0.000000
0.000000 0.000000 0.000000
-151.265823 1.982883 0.000000
1.982883 -152.815459 0.000000
0.000000 0.000000 0.000000
-184.965123 1.593175 0.000000
1.593175 -184.675264 0.000000
0.000000 0.000000 0.000000
-322.186158 0.940792 0.000000
0.940792 -320.717460 0.000000
0.000000 0.000000 0.000000
-313.566624 1.258629 0.000000
1.258629 -310.476853 0.000000
0.000000 0.000000 0.000000
-108.307258 1.286449 0.000000
1.286449 -101.418321 0.000000
0.000000 0.000000 0.000000
63.735417 0.425988 0.000000
0.425988 75.395146 0.000000
0.000000 0.000000 0.000000
146.425319 -0.492891 0.000000
-0.492891 161.740170 0.000000
0.000000 0.000000 0.000000
101.687156 -4.226931 0.000000
-4.226931 121.411390 0.000000
0.000000 0.000000 0.000000
114.700442 4.925729 0.000000
4.925729 113.704899 0.000000
0.000000 0.000000 0.000000
152.509878 5.045660 0.000000
5.045660 150.847317 0.000000
0.000000 0.000000 0.000000
173.174544 5.086541 0.000000
5.086541 170.712486 0.000000
0.000000 0.000000 0.000000
194.288166 5.088534 0.000000
5.088534 191.009376 0.000000
0.000000 0.000000 0.000000
202.534349 5.000929 0.000000
5.000929 198.504769 0.000000
0.000000 0.000000 0.000000
201.382786 4.848318 0.000000
4.848318 196.682025 0.000000
0.000000 0.000000 0.000000
199.365491 4.680205 0.000000
4.680205 194.104146 0.000000
0.000000 0.000000 0.000000
196.045365 4.519891 0.000000
4.519891 190.391671 0.000000
0.000000 0.000000 0.000000
176.159740 4.320217 0.000000
4.320217 170.267896 0.000000
0.000000 0.000000 0.000000
145.754525 4.068267 0.000000
4.068267 139.747470 0.000000
0.000000 0.000000 0.000000
118.465792 3.852331 0.000000
3.852331 112.494777 0.000000
0.000000 0.000000 0.000000
89.116134 3.713715 0.000000
3.713715 83.415155 0.000000
0.000000 0.000000 0.000000
30.642617 3.537877 0.000000
3.537877 25.556953 0.000000
0.000000 0.000000 0.000000
-54.015600 3.186433 0.000000
3.186433 -58.338783 0.000000
0.000000 0.000000 0.000000
-132.496036 2.873750 0.000000
2.873750 -135.951353 0.000000
0.000000 0.000000 0.000000
-212.538338 2.650195 0.000000
2.650195 -214.763704 0.000000
0.000000 0.000000 0.000000
-332.391952 2.327555 0.000000
2.327555 -333.125273 0.000000
0.000000 0.000000 0.000000
-415.697032 1.979195 0.000000
1.979195 -414.944780 0.000000
0.000000 0.000000 0.000000
-493.978468 1.566647 0.000000
1.566647 -491.811302 0.000000
0.000000 0.000000 0.000000
-379.350192 1.852156 0.000000
1.852156 -374.385212 0.000000
0.000000 0.000000 0.000000
-452.483355 0.754559 0.000000
0.754559 -444.244983 0.000000
0.000000 0.000000 0.000000
-221.301033 -0.230160 0.000000
-0.230160 -208.963423 0.000000
0.000000 0.000000 0.000000
5.903298 -2.390690 0.000000
-2.390690 22.992791 0.000000
0.000000 0.000000 0.000000
-253.185335 -5.275429 0.000000
-5.275429 -234.492527 0.000000
0.000000 0.000000 0.000000
183.571424 5.080096 0.000000
5.080096 182.248144 0.000000
0.000000 0.000000 0.000000
216.997772 5.233125 0.000000
5.233125 214.874513 0.000000
0.000000 0.000000 0.000000
243.470856 5.300343 0.000000
5.300343 240.422675 0.000000
0.000000 0.000000 0.000000
254.761265 5.276643 0.000000
5.276643 250.842999 0.000000
0.000000 0.000000 0.000000
257.117835 5.199564 0.000000
5.199564 252.464663 0.000000
0.000000 0.000000 0.000000
250.939102 5.084594 0.000000
5.084594 245.652137 0.000000
0.000000 0.000000 0.000000
237.913849 4.935891 0.000000
4.935891 232.111268 0.000000
0.000000 0.000000 0.000000
218.089118 4.762907 0.000000
4.762907 211.984787 0.000000
0.000000 0.000000 0.000000
184.375109 4.573068 0.000000
4.573068 178.128481 0.000000
0.000000 0.000000 0.000000
139.276511 4.388350 0.000000
4.388350 133.010876 0.000000
0.000000 0.000000 0.000000
89.093860 4.210585 0.000000
4.210585 83.060067 0.000000
0.000000 0.000000 0.000000
20.510103 3.997555 0.000000
3.997555 14.969348 0.000000
0.000000 0.000000 0.000000
-65.200913 3.767054 0.000000
3.767054 -70.026943 0.000000
0.000000 0.000000 0.000000
-174.335763 3.495599 0.000000
3.495599 -178.330440 0.000000
0.000000 0.000000 0.000000
-289.008399 3.225717 0.000000
3.225717 -291.796943 0.000000
0.000000 0.000000 0.000000
-403.912552 2.817172 0.000000
2.817172 -405.545389 0.000000
0.000000 0.000000 0.000000
-497.818729 2.436053 0.000000
2.436053 -497.880538 0.000000
0.000000 0.000000 0.000000
-593.616069 2.028861 0.000000
2.028861 -592.092458 0.000000
0.000000 0.000000 0.000000
-705.512517 1.671099 0.000000
1.671099 -702.233126 0.000000
0.000000 0.000000 0.000000
-626.257206 1.395749 0.000000
1.395749 -619.772480 0.000000
0.000000 0.000000 0.000000
-778.456581 0.324707 0.000000
0.324707 -768.705221 0.000000
0.000000 0.000000 0.000000
-638.496952 -0.703255 0.000000
-0.703255 -625.024290 0.000000
0.000000 0.000000 0.000000
-606.610854 -3.294553 0.000000
-3.294553 -590.199124 0.000000
0.000000 0.000000 0.000000
-620.416578 -5.698855 0.000000
-5.698855 -603.901422 0.000000
0.000000 0.000000 0.000000
261.274613 5.361652 0.000000
5.361652 259.660307 0.000000
0.000000 0.000000 0.000000
296.468622 5.515260 0.000000
5.515260 293.885706 0.000000
0.000000 0.000000 0.000000
310.645515 5.567373 0.000000
5.567373 307.141336 0.000000
0.000000 0.000000 0.000000
311.094456 5.542983 0.000000
5.542983 306.739841 0.000000
0.000000 0.000000 0.000000
305.462388 5.465977 0.000000
5.465977 300.370733 0.000000
0.000000 0.000000 0.000000
290.587859 5.358413 0.000000
5.358413 284.926082 0.000000
0.000000 0.000000 0.000000
259.737069 5.229855 0.000000
5.229855 253.677086 0.000000
0.000000 0.000000 0.000000
216.668687 5.074958 0.000000
5.074958 210.394333 0.000000
0.000000 0.000000 0.000000
164.609085 4.897446 0.000000
4.897446 158.295853 0.000000
0.000000 0.000000 0.000000
97.532914 4.715469 0.000000
4.715469 91.362458 0.000000
0.000000 0.000000 0.000000
19.131985 4.544053 0.000000
4.544053 13.320023 0.000000
0.000000 0.000000 0.000000
-91.635392 4.304508 0.000000
4.304508 -96.784718 0.000000
0.000000 0.000000 0.000000
-203.639356 4.043584 0.000000
4.043584 -207.914369 0.000000
0.000000 0.000000 0.000000
-345.944841 3.677435 0.000000
3.677435 -349.341032 0.000000
0.000000 0.000000 0.000000
-453.362688 3.396207 0.000000
3.396207 -455.575136 0.000000
0.000000 0.000000 0.000000
-634.115480 2.950266 0.000000
2.950266 -635.014345 0.000000
0.000000 0.000000 0.000000
-727.808563 2.634135 0.000000
2.634135 -727.185319 0.000000
0.000000 0.000000 0.000000
-887.095494 2.092217 0.000000
2.092217 -884.659614 0.000000
0.000000 0.000000 0.000000
-970.143868 1.757256 0.000000
1.757256 -965.542736 0.000000
0.000000 0.000000 0.000000
-1038.227813 0.860623 0.000000
0.860623 -1030.405103 0.000000
0.000000 0.000000 0.000000
-1091.296216 -0.402190 0.000000
-0.402190 -1080.897974 0.000000
0.000000 0.000000 0.000000
-1027.035181 -2.011681 0.000000
-2.011681 -1013.859665 0.000000
0.000000 0.000000 0.000000
-1014.332295 -3.941726 0.000000
-3.941726 -999.597969 0.000000
0.000000 0.000000 0.000000
-1123.113312 -5.651018 0.000000
-5.651018 -1108.076173 0.000000
0.000000 0.000000 0.000000
346.158852 5.735732 0.000000
5.735732 344.292103 0.000000
0.000000 0.000000 0.000000
364.389294 5.860883 0.000000
5.860883 361.522231 0.000000
0.000000 0.000000 0.000000
369.320632 5.885097 0.000000
5.885097 365.492599 0.000000
0.000000 0.000000 0.000000
358.545603 5.854560 0.000000
5.854560 353.891780 0.000000
0.000000 0.000000 0.000000
333.911696 5.780506 0.000000
5.780506 328.601585 0.000000
0.000000 0.000000 0.000000
296.530467 5.664200 0.000000
5.664200 290.740666 0.000000
0.000000 0.000000 0.000000
248.248202 5.521097 0.000000
5.521097 242.145434 0.000000
0.000000 0.000000 0.000000
182.873994 5.360660 0.000000
5.360660 176.648014 0.000000
0.000000 0.000000 0.000000
103.068043 5.181707 0.000000
5.181707 96.912120 0.000000
0.000000 0.000000 0.000000
2.831881 4.980485 0.000000
4.980485 -3.012977 0.000000
0.000000 0.000000 0.000000
-112.194075 4.747614 0.000000
4.747614 -117.531679 0.000000
0.000000 0.000000 0.000000
-240.198691 4.470554 0.000000
4.470554 -244.893649 0.000000
0.000000 0.000000 0.000000
-383.009320 4.151064 0.000000
4.151064 -386.785764 0.000000
0.000000 0.000000 0.000000
-546.732314 3.792177 0.000000
3.792177 -549.497298 0.000000
0.000000 0.000000 0.000000
-696.670476 3.402009 0.000000
3.402009 -698.124255 0.000000
0.000000 0.000000 0.000000
-860.814485 2.950707 0.000000
2.950707 -861.001649 0.000000
0.000000 0.000000 0.000000
-1006.009601 2.522371 0.000000
2.522371 -1004.489767 0.000000
0.000000 0.000000 0.000000
-1163.912877 1.945010 0.000000
1.945010 -1160.404778 0.000000
0.000000 0.000000 0.000000
-1292.857762 1.271914 0.000000
1.271914 -1287.169514 0.000000
0.000000 0.000000 0.000000
-1396.988391 0.270827 0.000000
0.270827 -1388.794176 0.000000
0.000000 0.000000 0.000000
-1481.373538 -0.933400 0.000000
-0.933400 -1470.824454 0.000000
0.000000 0.000000 0.000000
-1513.132905 -2.473161 0.000000
-2.473161 -1500.465179 0.000000
0.000000 0.000000 0.000000
-1513.280435 -4.074000 0.000000
-4.074000 -1499.432967 0.000000
0.000000 0.000000 0.000000
-1600.233970 -5.594350 0.000000
-5.594350 -1585.773763 0.000000
0.000000 0.000000 0.000000
429.099311 6.160068 0.000000
6.160068 427.069402 0.000000
0.000000 0.000000 0.000000
431.452808 6.241130 0.000000
6.241130 428.371324 0.000000
0.000000 0.000000 0.000000
415.696742 6.244378 0.000000
6.244378 411.711656 0.000000
0.000000 0.000000 0.000000
388.762565 6.192889 0.000000
6.192889 384.007802 0.000000
0.000000 0.000000 0.000000
344.186988 6.096605 0.000000
6.096605 338.841531 0.000000
0.000000 0.000000 0.000000
284.093773 5.973400 0.000000
5.973400 278.354440 0.000000
0.000000 0.000000 0.000000
208.209722 5.817685 0.000000
5.817685 202.250831 0.000000
0.000000 0.000000 0.000000
114.647828 5.639981 0.000000
5.639981 108.695290 0.000000
0.000000 0.000000 0.000000
4.474847 5.439989 0.000000
5.439989 -1.318718 0.000000
0.000000 0.000000 0.000000
-122.306219 5.205952 0.000000
5.205952 -127.682402 0.000000
0.000000 0.000000 0.000000
-268.453113 4.937942 0.000000
4.937942 -273.278910 0.000000
0.000000 0.000000 0.000000
-434.311582 4.644297 0.000000
4.644297 -438.355783 0.000000
0.000000 0.000000 0.000000
-607.894135 4.291786 0.000000
4.291786 -611.009922 0.000000
0.000000 0.000000 0.000000
-785.625688 3.914181 0.000000
3.914181 -787.676195 0.000000
0.000000 0.000000 0.000000
-977.623362 3.460143 0.000000
3.460143 -978.430605 0.000000
0.000000 0.000000 0.000000
-1161.919012 3.008550 0.000000
3.008550 -1161.178364 0.000000
0.000000 0.000000 0.000000
-1363.077858 2.393788 0.000000
2.393788 -1360.744449 0.000000
0.000000 0.000000 0.000000
-1508.991454 1.771687 0.000000
1.771687 -1504.712754 0.000000
0.000000 0.000000 0.000000
-1703.402732 0.837757 0.000000
0.837757 -1696.978474 0.000000
0.000000 0.000000 0.000000
-1798.099767 -0.164154 0.000000
-0.164154 -1789.605838 0.000000
0.000000 0.000000 0.000000
-1908.381897 -1.531314 0.000000
-1.531314 -1898.020563 0.000000
0.000000 0.000000 0.000000
-1921.678871 -2.862012 0.000000
-2.862012 -1909.799424 0.000000
0.000000 0.000000 0.000000
-1952.248775 -4.320627 0.000000
-4.320627 -1939.109968 0.000000
0.000000 0.000000 0.000000
-1993.342517 -5.625755 0.000000
-5.625755 -1979.633914 0.000000
0.000000 0.000000 0.000000
504.633537 6.635629 0.000000
6.635629 502.507362 0.000000
0.000000 0.000000 0.000000
485.530500 6.666478 0.000000
6.666478 482.364661 0.000000
0.000000 0.000000 0.000000
451.835783 6.632797 0.000000
6.632797 447.797801 0.000000
0.000000 0.000000 0.000000
394.367114 6.544656 0.000000
6.544656 389.645925 0.000000
0.000000 0.000000 0.000000
324.484293 6.419017 0.000000
6.419017 319.257523 0.000000
0.000000 0.000000 0.000000
238.561696 6.267383 0.000000
6.267383 233.027333 0.000000
0.000000 0.000000 0.000000
127.562414 6.077387 0.000000
6.077387 121.908467 0.000000
0.000000 0.000000 0.000000
9.424749 5.879649 0.000000
5.879649 3.879123 0.000000
0.000000 0.000000 0.000000
-140.665365 5.627579 0.000000
5.627579 -145.962134 0.000000
0.000000 0.000000 0.000000
-291.266181 5.378577 0.000000
5.378577 -296.094795 0.000000
0.000000 0.000000 0.000000
-478.396873 5.042107 0.000000
5.042107 -482.567190 0.000000
0.000000 0.000000 0.000000
-652.857527 4.712243 0.000000
4.712243 -656.255563 0.000000
0.000000 0.000000 0.000000
-866.272462 4.291635 0.000000
4.291635 -868.710444 0.000000
0.000000 0.000000 0.000000
-1061.323014 3.890948 0.000000
3.890948 -1062.607475 0.000000
0.000000 0.000000 0.000000
-1288.782572 3.370190 0.000000
3.370190 -1288.809231 0.000000
0.000000 0.000000 0.000000
-1475.931745 2.840325 0.000000
2.840325 -1474.472374 0.000000
0.000000 0.000000 0.000000
-1713.708848 2.163552 0.000000
2.163552 -1710.618120 0.000000
0.000000 0.000000 0.000000
-1892.938128 1.416688 0.000000
1.416688 -1888.004722 0.000000
0.000000 0.000000 0.000000
-2080.365851 0.437249 0.000000
0.437249 -2073.710300 0.000000
0.000000 0.000000 0.000000
-2200.638933 -0.620798 0.000000
-0.620798 -2192.118761 0.000000
0.000000 0.000000 0.000000
-2337.950645 -1.843843 0.000000
-1.843843 -2327.910881 0.000000
0.000000 0.000000 0.000000
-2405.430640 -3.082809 0.000000
-3.082809 -2393.998558 0.000000
0.000000 0.000000 0.000000
-2443.711646 -4.350626 0.000000
-4.350626 -2431.197611 0.000000
0.000000 0.000000 0.000000
-2508.590590 -5.522842 0.000000
-5.522842 -2495.265944 0.000000
0.000000 0.000000 0.000000
574.114758 7.120195 0.000000
7.120195 571.943088 0.000000
0.000000 0.000000 0.000000
526.224948 7.105332 0.000000
7.105332 523.056942 0.000000
0.000000 0.000000 0.000000
463.344972 7.023836 0.000000
7.023836 459.377219 0.000000
0.000000 0.000000 0.000000
381.464202 6.901239 0.000000
6.901239 376.880624 0.000000
0.000000 0.000000 0.000000
277.078101 6.743847 0.000000
6.743847 272.087359 0.000000
0.000000 0.000000 0.000000
156.378604 6.555979 0.000000
6.555979 151.192535 0.000000
0.000000 0.000000 0.000000
17.596258 6.340565 0.000000
6.340565 12.359276 0.000000
0.000000 0.000000 0.000000
-138.548414 6.094646 0.000000
6.094646 -143.596318 0.000000
0.000000 0.000000 0.000000
-314.532070 5.817655 0.000000
5.817655 -319.252814 0.000000
0.000000 0.000000 0.000000
-506.412835 5.505420 0.000000
5.505420 -510.612996 0.000000
0.000000 0.000000 0.000000
-709.064799 5.160946 0.000000
5.160946 -712.608176 0.000000
0.000000 0.000000 0.000000
-932.829841 4.771546 0.000000
4.771546 -935.510717 0.000000
0.000000 0.000000 0.000000
-1156.914337 4.343055 0.000000
4.343055 -1158.625639 0.000000
0.000000 0.000000 0.000000
-1391.839720 3.843979 0.000000
3.843979 -1392.400356 0.000000
0.000000 0.000000 0.000000
-1632.799045 3.308726 0.000000
3.308726 -1632.104696 0.000000
0.000000 0.000000 0.000000
-1874.089140 2.672156 0.000000
2.672156 -1871.902241 0.000000
0.000000 0.000000 0.000000
-2094.074297 1.947273 0.000000
1.947273 -2090.399641 0.000000
0.000000 0.000000 0.000000
-2307.487479 1.098672 0.000000
1.098672 -2302.188286 0.000000
0.000000 0.000000 0.000000
-2511.832452 0.148015 0.000000
0.148015 -2504.964182 0.000000
0.000000 0.000000 0.000000
-2662.426821 -0.931488 0.000000
-0.931488 -2654.006811 0.000000
0.000000 0.000000 0.000000
-2786.175048 -2.088955 0.000000
-2.088955 -2776.395943 0.000000
0.000000 0.000000 0.000000
-2882.270247 -3.264747 0.000000
-3.264747 -2871.279085 0.000000
0.000000 0.000000 0.000000
-2925.379200 -4.415490 0.000000
-4.415490 -2913.302297 0.000000
0.000000 0.000000 0.000000
-2967.253153 -5.543166 0.000000
-5.543166 -2954.359623 0.000000
0.000000 0.000000 0.000000
628.485554 7.609060 0.000000
7.609060 626.335762 0.000000
0.000000 0.000000 0.000000
547.346531 7.529288 0.000000
7.529288 544.249928 0.000000
0.000000 0.000000 0.000000
449.353654 7.401410 0.000000
7.401410 445.548917 0.000000
0.000000 0.000000 0.000000
333.068785 7.240473 0.000000
7.240473 328.748368 0.000000
0.000000 0.000000 0.000000
195.427013 7.039645 0.000000
7.039645 190.785320 0.000000
0.000000 0.000000 0.000000
42.109127 6.815068 0.000000
6.815068 37.327780 0.000000
0.000000 0.000000 0.000000
-134.160677 6.558115 0.000000
6.558115 -138.883200 0.000000
0.000000 0.000000 0.000000
-322.794723 6.276182 0.000000
6.276182 -327.293515 0.000000
0.000000 0.000000 0.000000
-529.670036 5.961308 0.000000
5.961308 -533.752890 0.000000
0.000000 0.000000 0.000000
-754.519985 5.609079 0.000000
5.609079 -758.070980 0.000000
0.000000 0.000000 0.000000
-988.550091 5.226568 0.000000
5.226568 -991.365864 0.000000
0.000000 0.000000 0.000000
-1237.026293 4.781607 0.000000
4.781607 -1239.023097 0.000000
0.000000 0.000000 0.000000
-1487.611100 4.316568 0.000000
4.316568 -1488.613646 0.000000
0.000000 0.000000 0.000000
-1751.252155 3.766450 0.000000
3.766450 -1751.113142 0.000000
0.000000 0.000000 0.000000
-2005.055219 3.168659 0.000000
3.168659 -2003.684038 0.000000
0.000000 0.000000 0.000000
-2264.823339 2.470691 0.000000
2.470691 -2262.127100 0.000000
0.000000 0.000000 0.000000
-2514.762418 1.703858 0.000000
1.703858 -2510.651902 0.000000
0.000000 0.000000 0.000000
-2741.142988 0.825849 0.000000
0.825849 -2735.547320 0.000000
0.000000 0.000000 0.000000
-2952.872307 -0.134506 0.000000
-0.134506 -2945.942786 0.000000
0.000000 0.000000 0.000000
-3129.543614 -1.161676 0.000000
-1.161676 -3121.250262 0.000000
0.000000 0.000000 0.000000
-3276.757943 -2.256670 0.000000
-2.256670 -3267.279534 0.000000
0.000000 0.000000 0.000000
-3374.689432 -3.370485 0.000000
-3.370485 -3364.085248 0.000000
0.000000 0.000000 0.000000
-3425.028674 -4.444981 0.000000
-4.444981 -3413.395294 0.000000
0.000000 0.000000 0.000000
-3490.056890 -5.506135 0.000000
-5.506135 -3477.462487 0.000000
0.000000 0.000000 0.000000
660.767460 8.083543 0.000000
8.083543 658.673424 0.000000
0.000000 0.000000 0.000000
538.726412 7.940991 0.000000
7.940991 535.791103 0.000000
0.000000 0.000000 0.000000
407.447879 7.771456 0.000000
7.771456 403.886739 0.000000
0.000000 0.000000 0.000000
250.973343 7.551251 0.000000
7.551251 246.969808 0.000000
0.000000 0.000000 0.000000
80.860412 7.321121 0.000000
7.321121 76.628258 0.000000
0.000000 0.000000 0.000000
-114.974786 7.046606 0.000000
7.046606 -119.258631 0.000000
0.000000 0.000000 0.000000
-318.636945 6.763776 0.000000
6.763776 -322.800187 0.000000
0.000000 0.000000 0.000000
-549.494761 6.431251 0.000000
6.431251 -553.383472 0.000000
0.000000 0.000000 0.000000
-782.361856 6.082936 0.000000
6.082936 -785.809162 0.000000
0.000000 0.000000 0.000000
-1041.086102 5.678935 0.000000
5.678935 -1043.958302 0.000000
0.000000 0.000000 0.000000
-1297.936554 5.254553 0.000000
5.254553 -1300.091268 0.000000
0.000000 0.000000 0.000000
-1575.109672 4.775573 0.000000
4.775573 -1576.404247 0.000000
0.000000 0.000000 0.000000
-1855.088377 4.246010 0.000000
4.246010 -1855.412079 0.000000
0.000000 0.000000 0.000000
-2136.811487 3.665562 0.000000
3.665562 -2136.067208 0.000000
0.000000 0.000000 0.000000
-2424.125649 3.008235 0.000000
3.008235 -2422.199434 0.000000
0.000000 0.000000 0.000000
-2691.994922 2.303977 0.000000
2.303977 -2688.803562 0.000000
0.000000 0.000000 0.000000
-2966.165306 1.482638 0.000000
1.482638 -2961.725413 0.000000
0.000000 0.000000 0.000000
-3190.546195 0.620925 0.000000
0.620925 -3184.825340 0.000000
0.000000 0.000000 0.000000
-3427.479541 -0.364949 0.000000
-0.364949 -3420.507881 0.000000
0.000000 0.000000 0.000000
-3599.514043 -1.343992 0.000000
-1.343992 -3591.376435 0.000000
0.000000 0.000000 0.000000
-3777.524976 -2.397129 0.000000
-2.397129 -3768.260854 0.000000
0.000000 0.000000 0.000000
-3904.805318 -3.402526 0.000000
-3.402526 -3894.512780 0.000000
0.000000 0.000000 0.000000
-3993.405221 -4.432267 0.000000
-4.432267 -3982.031307 0.000000
0.000000 0.000000 0.000000
-4052.652856 -5.452832 0.000000
-5.452832 -4040.344532 0.000000
0.000000 0.000000 0.000000
657.802817 8.524383 0.000000
8.524383 655.829030 0.000000
0.000000 0.000000 0.000000
501.898340 8.334964 0.000000
8.334964 499.158423 0.000000
0.000000 0.000000 0.000000
325.300558 8.105150 0.000000
8.105150 322.034036 0.000000
0.000000 0.000000 0.000000
133.860504 7.854234 0.000000
7.854234 130.250160 0.000000
0.000000 0.000000 0.000000
-79.006812 7.570854 0.000000
7.570854 -82.766266 0.000000
0.000000 0.000000 0.000000
-305.201340 7.265056 0.000000
7.265056 -308.964678 0.000000
0.000000 0.000000 0.000000
-548.721115 6.925631 0.000000
6.925631 -552.309821 0.000000
0.000000 0.000000 0.000000
-804.799250 6.564184 0.000000
6.564184 -808.074113 0.000000
0.000000 0.000000 0.000000
-1077.291250 6.165191 0.000000
6.165191 -1080.088587 0.000000
0.000000 0.000000 0.000000
-1359.026886 5.739730 0.000000
5.739730 -1361.238772 0.000000
0.000000 0.000000 0.000000
-1655.659302 5.263543 0.000000
5.263543 -1657.142659 0.000000
0.000000 0.000000 0.000000
-1951.738216 4.750015 0.000000
4.750015 -1952.390604 0.000000
0.000000 0.000000 0.000000
-2255.227041 4.181721 0.000000
4.181721 -2254.945571 0.000000
0.000000 0.000000 0.000000
-2555.661770 3.561789 0.000000
3.561789 -2554.330233 0.000000
0.000000 0.000000 0.000000
-2857.658852 2.869675 0.000000
2.869675 -2855.261949 0.000000
0.000000 0.000000 0.000000
-3140.165766 2.117016 0.000000
2.117016 -3136.621459 0.000000
0.000000 0.000000 0.000000
-3425.833397 1.301215 0.000000
1.301215 -3421.173244 0.000000
0.000000 0.000000 0.000000
-3682.758122 0.433913 0.000000
0.433913 -3676.911522 0.000000
0.000000 0.000000 0.000000
-3925.884741 -0.489534 0.000000
-0.489534 -3918.958989 0.000000
0.000000 0.000000 0.000000
-4137.754020 -1.456843 0.000000
-1.456843 -4129.699948 0.000000
0.000000 0.000000 0.000000
-4307.414811 -2.458534 0.000000
-2.458534 -4298.342326 0.000000
0.000000 0.000000 0.000000
-4441.542878 -3.458391 0.000000
-3.458391 -4431.468281 0.000000
0.000000 0.000000 0.000000
-4529.286560 -4.446704 0.000000
-4.446704 -4518.197862 0.000000
0.000000 0.000000 0.000000
-4616.981689 -5.424634 0.000000
-5.424634 -4604.949816 0.000000
0.000000 0.000000 0.000000
626.805029 8.940389 0.000000
8.940389 624.966366 0.000000
0.000000 0.000000 0.000000
421.962727 8.688518 0.000000
8.688518 419.496496 0.000000
0.000000 0.000000 0.000000
206.341127 8.416723 0.000000
8.416723 203.419731 0.000000
0.000000 0.000000 0.000000
-26.197985 8.113186 0.000000
8.113186 -29.388421 0.000000
0.000000 0.000000 0.000000
-272.648863 7.790270 0.000000
7.790270 -275.935887 0.000000
0.000000 0.000000 0.000000
-536.230153 7.444631 0.000000
7.444631 -539.447613 0.000000
0.000000 0.000000 0.000000
-814.320614 7.071951 0.000000
7.071951 -817.322823 0.000000
0.000000 0.000000 0.000000
-1105.504680 6.671016 0.000000
6.671016 -1108.152669 0.000000
0.000000 0.000000 0.000000
-1405.222431 6.234753 0.000000
6.234753 -1407.394789 0.000000
0.000000 0.000000 0.000000
-1715.376963 5.763875 0.000000
5.763875 -1716.943979 0.000000
0.000000 0.000000 0.000000
-2031.543498 5.253616 0.000000
5.253616 -2032.406950 0.000000
0.000000 0.000000 0.000000
-2354.244088 4.701837 0.000000
4.701837 -2354.295245 0.000000
0.000000 0.000000 0.000000
-2682.184658 4.094718 0.000000
4.094718 -2681.352157 0.000000
0.000000 0.000000 0.000000
-3000.084358 3.443388 0.000000
3.443388 -2998.308256 0.000000
0.000000 0.000000 0.000000
-3322.708370 2.735122 0.000000
2.735122 -3319.928165 0.000000
0.000000 0.000000 0.000000
-3625.269766 1.979868 0.000000
1.979868 -3621.423918 0.000000
0.000000 0.000000 0.000000
-3924.534286 1.162287 0.000000
1.162287 -3919.639564 0.000000
0.000000 0.000000 0.000000
-4195.178854 0.299999 0.000000
0.299999 -4189.240267 0.000000
0.000000 0.000000 0.000000
-4447.440311 -0.606330 0.000000
-0.606330 -4440.494258 0.000000
0.000000 0.000000 0.000000
-4669.588581 -1.539326 0.000000
-1.539326 -4661.677644 0.000000
0.000000 0.000000 0.000000
-4863.321574 -2.488556 0.000000
-2.488556 -4854.447576 0.000000
0.000000 0.000000 0.000000
-5026.072860 -3.464591 0.000000
-3.464591 -5016.228841 0.000000
0.000000 0.000000 0.000000
-5124.268907 -4.412535 0.000000
-4.412535 -5113.400186 0.000000
0.000000 0.000000 0.000000
-5222.845040 -5.394796 0.000000
-5.394796 -5210.973780 0.000000
0.000000 0.000000 0.000000
543.818552 9.317922 0.000000
9.317922 542.171048 0.000000
0.000000 0.000000 0.000000
304.098678 9.017632 0.000000
9.017632 301.895974 0.000000
0.000000 0.000000 0.000000
42.768976 8.690004 0.000000
8.690004 40.204663 0.000000
0.000000 0.000000 0.000000
-228.037802 8.349409 0.000000
8.349409 -230.792780 0.000000
0.000000 0.000000 0.000000
-513.038806 7.986961 0.000000
7.986961 -515.814816 0.000000
0.000000 0.000000 0.000000
-811.584454 7.598531 0.000000
7.598531 -814.253707 0.000000
0.000000 0.000000 0.000000
-1119.018002 7.187495 0.000000
7.187495 -1121.443497 0.000000
0.000000 0.000000 0.000000
-1439.995468 6.746114 0.000000
6.746114 -1442.054407 0.000000
0.000000 0.000000 0.000000
-1769.120728 6.277130 0.000000
6.277130 -1770.683269 0.000000
0.000000 0.000000 0.000000
-2107.822775 5.769789 0.000000
5.769789 -2108.797263 0.000000
0.000000 0.000000 0.000000
-2450.186280 5.228861 0.000000
5.228861 -2450.475765 0.000000
0.000000 0.000000 0.000000
-2794.770140 4.641018 0.000000
4.641018 -2794.294025 0.000000
0.000000 0.000000 0.000000
-3136.618048 4.021382 0.000000
4.021382 -3135.306247 0.000000
0.000000 0.000000 0.000000
-3479.184124 3.347846 0.000000
3.347846 -3476.954269 0.000000
0.000000 0.000000 0.000000
-3812.229904 2.635205 0.000000
2.635205 -3809.092360 0.000000
0.000000 0.000000 0.000000
-4132.028411 1.866782 0.000000
1.866782 -4127.936434 0.000000
0.000000 0.000000 0.000000
-4437.860123 1.052696 0.000000
1.052696 -4432.841881 0.000000
0.000000 0.000000 0.000000
-4721.707300 0.202439 0.000000
0.202439 -4715.716280 0.000000
0.000000 0.000000 0.000000
-4993.984258 -0.684503 0.000000
-0.684503 -4987.054501 0.000000
0.000000 0.000000 0.000000
-5237.978672 -1.587211 0.000000
-1.587211 -5230.118286 0.000000
0.000000 0.000000 0.000000
-5453.777183 -2.502189 0.000000
-2.502189 -5444.999265 0.000000
0.000000 0.000000 0.000000
-5639.872312 -3.433871 0.000000
-3.433871 -5630.211391 0.000000
0.000000 0.000000 0.000000
-5756.613190 -4.374083 0.000000
-4.374083 -5745.957375 0.000000
0.000000 0.000000 0.000000
-5859.380685 -5.344130 0.000000
-5.344130 -5847.760571 0.000000
0.000000 0.000000 0.000000
421.152591 9.657042 0.000000
9.657042 419.686981 0.000000
0.000000 0.000000 0.000000
133.130307 9.307723 0.000000
9.307723 131.230561 0.000000
0.000000 0.000000 0.000000
-164.130263 8.942140 0.000000
8.942140 -166.318993 0.000000
0.000000 0.000000 0.000000
-474.772789 8.555972 0.000000
8.555972 -477.085448 0.000000
0.000000 0.000000 0.000000
-792.443989 8.152481 0.000000
8.152481 -794.743868 0.000000
0.000000 0.000000 0.000000
-1123.378170 7.726622 0.000000
7.726622 -1125.523899 0.000000
0.000000 0.000000 0.000000
-1464.663529 7.278522 0.000000
7.278522 -1466.531631 0.000000
0.000000 0.000000 0.000000
-1813.934207 6.806464 0.000000
6.806464 -1815.416934 0.000000
0.000000 0.000000 0.000000
-2170.454566 6.303651 0.000000
6.303651 -2171.454312 0.000000
0.000000 0.000000 0.000000
-2530.162516 5.770797 0.000000
5.770797 -2530.582945 0.000000
0.000000 0.000000 0.000000
-2894.612101 5.203507 0.000000
5.203507 -2894.367439 0.000000
0.000000 0.000000 0.000000
-3260.035282 4.600788 0.000000
4.600788 -3259.060062 0.000000
0.000000 0.000000 0.000000
-3625.074648 3.951549 0.000000
3.951549 -3623.321218 0.000000
0.000000 0.000000 0.000000
-3975.763069 3.266962 0.000000
3.266962 -3973.188804 0.000000
0.000000 0.000000 0.000000
-4330.326076 2.530897 0.000000
2.530897 -4326.901383 0.000000
0.000000 0.000000 0.000000
-4660.289649 1.779805 0.000000
1.779805 -4655.973469 0.000000
0.000000 0.000000 0.000000
-4997.940235 0.979498 0.000000
0.979498 -4992.750463 0.000000
0.000000 0.000000 0.000000
-5297.752072 0.155781 0.000000
0.155781 -5291.695186 0.000000
0.000000 0.000000 0.000000
-5576.237906 -0.707594 0.000000
-0.707594 -5569.324699 0.000000
0.000000 0.000000 0.000000
-5824.107660 -1.600014 0.000000
-1.600014 -5816.329571 0.000000
0.000000 0.000000 0.000000
-6040.290190 -2.510229 0.000000
-2.510229 -6031.638441 0.000000
0.000000 0.000000 0.000000
-6247.041311 -3.425079 0.000000
-3.425079 -6237.519905 0.000000
0.000000 0.000000 0.000000
-6402.716629 -4.340803 0.000000
-4.340803 -6392.248522 0.000000
0.000000 0.000000 0.000000
-6538.269484 -5.288428 0.000000
-5.288428 -6526.837244 0.000000
0.000000 0.000000 0.000000
245.359702 9.954275 0.000000
9.954275 244.122536 0.000000
0.000000 0.000000 0.000000
-81.352573 9.559022 0.000000
9.559022 -82.965357 0.000000
0.000000 0.000000 0.000000
-420.260152 9.147963 0.000000
9.147963 -422.080797 0.000000
0.000000 0.000000 0.000000
-762.828639 8.731416 0.000000
8.731416 -764.716235 0.000000
0.000000 0.000000 0.000000
-1119.310415 8.292149 0.000000
8.292149 -1121.129621 0.000000
0.000000 0.000000 0.000000
-1479.640068 7.837998 0.000000
7.837998 -1481.274366 0.000000
0.000000 0.000000 0.000000
-1849.667062 7.357097 0.000000
7.357097 -1851.006800 0.000000
0.000000 0.000000 0.000000
-2224.159583 6.853308 0.000000
6.853308 -2225.110244 0.000000
0.000000 0.000000 0.000000
-2604.442803 6.323809 0.000000
6.323809 -2604.906543 0.000000
0.000000 0.000000 0.000000
-2990.131801 5.761253 0.000000
5.761253 -2990.034776 0.000000
0.000000 0.000000 0.000000
-3373.611228 5.168828 0.000000
5.168828 -3372.892449 0.000000
0.000000 0.000000 0.000000
-3755.326397 4.544692 0.000000
4.544692 -3753.917518 0.000000
0.000000 0.000000 0.000000
-4137.953510 3.886975 0.000000
3.886975 -4135.824871 0.000000
0.000000 0.000000 0.000000
-4507.743410 3.204525 0.000000
3.204525 -4504.825303 0.000000
0.000000 0.000000 0.000000
-4877.177191 2.478935 0.000000
2.478935 -4873.481527 0.000000
0.000000 0.000000 0.000000
-5219.972639 1.716298 0.000000
1.716298 -5215.460954 0.000000
0.000000 0.000000 0.000000
-5551.133140 0.922941 0.000000
0.922941 -5545.827947 0.000000
0.000000 0.000000 0.000000
-5867.579513 0.107681 0.000000
0.107681 -5861.461507 0.000000
0.000000 0.000000 0.000000
-6174.028135 -0.731912 0.000000
-0.731912 -6167.113677 0.000000
0.000000 0.000000 0.000000
-6452.033118 -1.582791 0.000000
-1.582791 -6444.324006 0.000000
0.000000 0.000000 0.000000
-6695.471653 -2.468824 0.000000
-2.468824 -6686.921785 0.000000
0.000000 0.000000 0.000000
-6905.527431 -3.377132 0.000000
-3.377132 -6896.145379 0.000000
0.000000 0.000000 0.000000
-7066.977650 -4.299378 0.000000
-4.299378 -7056.673308 0.000000
0.000000 0.000000 0.000000
-7216.349817 -5.254351 0.000000
-5.254351 -7205.108501 0.000000
0.000000 0.000000 0.000000
19.075071 10.207781 0.000000
10.207781 18.039512 0.000000
0.000000 0.000000 0.000000
-349.406173 9.774337 0.000000
9.774337 -350.715725 0.000000
0.000000 0.000000 0.000000
-720.079058 9.335206 0.000000
9.335206 -721.530965 0.000000
0.000000 0.000000 0.000000
-1101.382467 8.879081 0.000000
8.879081 -1102.841538 0.000000
0.000000 0.000000 0.000000
-1484.942902 8.411066 0.000000
8.411066 -1486.302530 0.000000
0.000000 0.000000 0.000000
-1876.940867 7.922105 0.000000
7.922105 -1878.094197 0.000000
0.000000 0.000000 0.000000
-2271.407242 7.417411 0.000000
7.417411 -2272.252280 0.000000
0.000000 0.000000 0.000000
-2673.947906 6.885635 0.000000
6.885635 -2674.398014 0.000000
0.000000 0.000000 0.000000
-3076.149430 6.331000 0.000000
6.331000 -3076.132417 0.000000
0.000000 0.000000 0.000000
-3477.967460 5.753408 0.000000
5.753408 -3477.411138 0.000000
0.000000 0.000000 0.000000
-3883.701720 5.142853 0.000000
5.142853 -3882.544077 0.000000
0.000000 0.000000 0.000000
-4278.869962 4.512702 0.000000
4.512702 -4277.055957 0.000000
0.000000 0.000000 0.000000
-4676.979125 3.845358 0.000000
3.845358 -4674.479469 0.000000
0.000000 0.000000 0.000000
-5060.066466 3.150420 0.000000
3.150420 -5056.857062 0.000000
0.000000 0.000000 0.000000
-5439.343387 2.429830 0.000000
2.429830 -5435.416868 0.000000
0.000000 0.000000 0.000000
-5803.503249 1.683915 0.000000
1.683915 -5798.827815 0.000000
0.000000 0.000000 0.000000
-6159.560474 0.905427 0.000000
0.905427 -6154.139052 0.000000
0.000000 0.000000 0.000000
-6486.877977 0.107022 0.000000
0.107022 -6480.691931 0.000000
0.000000 0.000000 0.000000
-6796.537325 -0.718793 0.000000
-0.718793 -6789.601190 0.000000
0.000000 0.000000 0.000000
-7090.385174 -1.564114 0.000000
-1.564114 -7082.700286 0.000000
0.000000 0.000000 0.000000
-7351.286794 -2.421809 0.000000
-2.421809 -7342.833807 0.000000
0.000000 0.000000 0.000000
-7597.526136 -3.314997 0.000000
-3.314997 -7588.288854 0.000000
0.000000 0.000000 0.000000
-7785.454749 -4.230048 0.000000
-4.230048 -7775.333364 0.000000
0.000000 0.000000 0.000000
-7948.005906 -5.179863 0.000000
-5.179863 -7936.982215 0.000000
0.000000 0.000000 0.000000
-264.028465 10.426011 0.000000
10.426011 -264.832171 0.000000
0.000000 0.000000 0.000000
-664.416275 9.960177 0.000000
9.960177 -665.434960 0.000000
0.000000 0.000000 0.000000
-1070.022403 9.484977 0.000000
9.484977 -1071.117451 0.000000
0.000000 0.000000 0.000000
-1479.152893 8.999940 0.000000
8.999940 -1480.217763 0.000000
0.000000 0.000000 0.000000
-1893.102807 8.502947 0.000000
8.502947 -1894.029704 0.000000
0.000000 0.000000 0.000000
-2310.125895 7.989692 0.000000
7.989692 -2310.825307 0.000000
0.000000 0.000000 0.000000
-2730.545266 7.457470 0.000000
7.457470 -2730.930851 0.000000
0.000000 0.000000 0.000000
-3151.047026 6.907040 0.000000
6.907040 -3151.042015 0.000000
0.000000 0.000000 0.000000
-3575.154579 6.334200 0.000000
6.334200 -3574.685821 0.000000
0.000000 0.000000 0.000000
-3999.304147 5.739024 0.000000
5.739024 -3998.313203 0.000000
0.000000 0.000000 0.000000
-4417.597777 5.121991 0.000000
5.121991 -4416.040917 0.000000
0.000000 0.000000 0.000000
-4834.747037 4.472167 0.000000
4.472167 -4832.579043 0.000000
0.000000 0.000000 0.000000
-5241.119018 3.806563 0.000000
3.806563 -5238.313013 0.000000
0.000000 0.000000 0.000000
-5638.837480 3.115320 0.000000
3.115320 -5635.348267 0.000000
0.000000 0.000000 0.000000
-6035.382314 2.399844 0.000000
2.399844 -6031.217124 0.000000
0.000000 0.000000 0.000000
-6408.616019 1.669885 0.000000
1.669885 -6403.754401 0.000000
0.000000 0.000000 0.000000
-6774.516044 0.907127 0.000000
0.907127 -6768.978735 0.000000
0.000000 0.000000 0.000000
-7119.259079 0.123240 0.000000
0.123240 -7113.031625 0.000000
0.000000 0.000000 0.000000
-7442.672555 -0.687104 0.000000
-0.687104 -7435.739566 0.000000
0.000000 0.000000 0.000000
-7752.639481 -1.523167 0.000000
-1.523167 -7744.998625 0.000000
0.000000 0.000000 0.000000
-8031.377112 -2.371875 0.000000
-2.371875 -8022.987586 0.000000
0.000000 0.000000 0.000000
-8305.689251 -3.252430 0.000000
-3.252430 -8296.550901 0.000000
0.000000 0.000000 0.000000
-8524.272778 -4.150879 0.000000
-4.150879 -8514.317143 0.000000
0.000000 0.000000 0.000000
-8720.716599 -5.100932 0.000000
-5.100932 -8709.888123 0.000000
0.000000 0.000000 0.000000
-597.173473 10.596043 0.000000
10.596043 -597.761738 0.000000
0.000000 0.000000 0.000000
-1030.628042 10.104666 0.000000
10.104666 -1031.352538 0.000000
0.000000 0.000000 0.000000
-1465.342622 9.606121 0.000000
9.606121 -1466.099735 0.000000
0.000000 0.000000 0.000000
-1901.195572 9.098547 0.000000
9.098547 -1901.878558 0.000000
0.000000 0.000000 0.000000
-2342.499310 8.575076 0.000000
8.575076 -2343.022178 0.000000
0.000000 0.000000 0.000000
-2782.290645 8.041897 0.000000
8.041897 -2782.567806 0.000000
0.000000 0.000000 0.000000
-3226.522102 7.489592 0.000000
7.489592 -3226.479914 0.000000
0.000000 0.000000 0.000000
-3670.313471 6.920474 0.000000
6.920474 -3669.879059 0.000000
0.000000 0.000000 0.000000
-4108.342101 6.333220 0.000000
6.333220 -4107.458627 0.000000
0.000000 0.000000 0.000000
-4547.046600 5.723566 0.000000
5.723566 -4545.667923 0.000000
0.000000 0.000000 0.000000
-4982.117155 5.098955 0.000000
5.098955 -4980.192171 0.000000
0.000000 0.000000 0.000000
-5408.194850 4.456458 0.000000
4.456458 -5405.689488 0.000000
0.000000 0.000000 0.000000
-5835.151073 3.786806 0.000000
3.786806 -5832.045569 0.000000
0.000000 0.000000 0.000000
-6240.194277 3.100698 0.000000
3.100698 -6236.457251 0.000000
0.000000 0.000000 0.000000
-6640.686667 2.384860 0.000000
2.384860 -6636.324803 0.000000
0.000000 0.000000 0.000000
-7028.463900 1.655473 0.000000
1.655473 -7023.449333 0.000000
0.000000 0.000000 0.000000
-7409.658510 0.909486 0.000000
0.909486 -7404.002099 0.000000
0.000000 0.000000 0.000000
-7777.313156 0.148358 0.000000
0.148358 -7771.008145 0.000000
0.000000 0.000000 0.000000
-8125.162157 -0.635808 0.000000
-0.635808 -8118.199174 0.000000
0.000000 0.000000 0.000000
-8454.732889 -1.448056 0.000000
-1.448056 -8447.111916 0.000000
0.000000 0.000000 0.000000
-8750.526479 -2.292497 0.000000
-2.292497 -8742.202655 0.000000
0.000000 0.000000 0.000000
-9034.587185 -3.171977 0.000000
-3.171977 -9025.565887 0.000000
0.000000 0.000000 0.000000
-9279.772394 -4.076477 0.000000
-4.076477 -9269.976909 0.000000
0.000000 0.000000 0.000000
-9502.851153 -5.032454 0.000000
-5.032454 -9492.230977 0.000000
0.000000 0.000000 0.000000
-982.104198 10.742736 0.000000
10.742736 -982.458640 0.000000
0.000000 0.000000 0.000000
-1442.249207 10.227400 0.000000
10.227400 -1442.693746 0.000000
0.000000 0.000000 0.000000
-1904.757320 9.705063 0.000000
9.705063 -1905.186307 0.000000
0.000000 0.000000 0.000000
-2366.793089 9.173801 0.000000
9.173801 -2367.121206 0.000000
0.000000 0.000000 0.000000
-2827.778121 8.633217 0.000000
8.633217 -2827.921596 0.000000
0.000000 0.000000 0.000000
-3291.921958 8.076877 0.000000
8.076877 -3291.807057 0.000000
0.000000 0.000000 0.000000
-3751.696350 7.510000 0.000000
7.510000 -3751.255653 0.000000
0.000000 0.000000 0.000000
-4212.733949 6.926478 0.000000
6.926478 -4211.914369 0.000000
0.000000 0.000000 0.000000
-4672.207219 6.327640 0.000000
6.327640 -4670.947388 0.000000
0.000000 0.000000 0.000000
-5122.930236 5.714864 0.000000
5.714864 -5121.183202 0.000000
0.000000 0.000000 0.000000
-5572.218401 5.079923 0.000000
5.079923 -5569.954043 0.000000
0.000000 0.000000 0.000000
-6010.273172 4.435427 0.000000
4.435427 -6007.453461 0.000000
0.000000 0.000000 0.000000
-6447.093468 3.770942 0.000000
3.770942 -6443.711631 0.000000
0.000000 0.000000 0.000000
-6872.005444 3.097678 0.000000
3.097678 -6868.028918 0.000000
0.000000 0.000000 0.000000
-7291.077894 2.403386 0.000000
2.403386 -7286.510228 0.000000
0.000000 0.000000 0.000000
-7687.295453 1.691225 0.000000
1.691225 -7682.118247 0.000000
0.000000 0.000000 0.000000
-8074.915959 0.954880 0.000000
0.954880 -8069.135014 0.000000
0.000000 0.000000 0.000000
-8452.028066 0.197536 0.000000
0.197536 -8445.641596 0.000000
0.000000 0.000000 0.000000
-8812.638346 -0.578920 0.000000
-0.578920 -8805.644972 0.000000
0.000000 0.000000 0.000000
-9166.324610 -1.382064 0.000000
-1.382064 -9158.722416 0.000000
0.000000 0.000000 0.000000
-9487.894374 -2.210300 0.000000
-2.210300 -9479.647332 0.000000
0.000000 0.000000 0.000000
-9797.271388 -3.077531 0.000000
-3.077531 -9788.362321 0.000000
0.000000 0.000000 0.000000
-10069.479221 -3.983209 0.000000
-3.983209 -10059.848244 0.000000
0.000000 0.000000 0.000000
-10315.203084 -4.937527 0.000000
-4.937527 -10304.810950 0.000000
0.000000 0.000000 0.000000
-1415.653391 10.857676 0.000000
10.857676 -1415.798974 0.000000
0.000000 0.000000 0.000000
-1902.123357 10.318197 0.000000
10.318197 -1902.301249 0.000000
0.000000 0.000000 0.000000
-2384.621402 9.778238 0.000000
9.778238 -2384.747892 0.000000
0.000000 0.000000 0.000000
-2870.947191 9.227526 0.000000
9.227526 -2870.944645 0.000000
0.000000 0.000000 0.000000
-3353.589440 8.668977 0.000000
8.668977 -3353.380139 0.000000
0.000000 0.000000 0.000000
-3835.258229 8.099630 0.000000
8.099630 -3834.782349 0.000000
0.000000 0.000000 0.000000
-4314.502542 7.517899 0.000000
7.517899 -4313.698892 0.000000
0.000000 0.000000 0.000000
-4788.315560 6.926072 0.000000
6.926072 -4787.127277 0.000000
0.000000 0.000000 0.000000
-5260.509595 6.319147 0.000000
6.319147 -5258.892582 0.000000
0.000000 0.000000 0.000000
-5727.643042 5.702047 0.000000
5.702047 -5725.561216 0.000000
0.000000 0.000000 0.000000
-6186.505589 5.071209 0.000000
5.071209 -6183.920488 0.000000
0.000000 0.000000 0.000000
-6637.729703 4.426779 0.000000
4.426779 -6634.612699 0.000000
0.000000 0.000000 0.000000
-7078.814734 3.771344 0.000000
3.771344 -7075.156473 0.000000
0.000000 0.000000 0.000000
-7511.194653 3.100774 0.000000
3.100774 -7506.976027 0.000000
0.000000 0.000000 0.000000
-7941.218844 2.417758 0.000000
2.417758 -7936.447931 0.000000
0.000000 0.000000 0.000000
-8360.707892 1.719232 0.000000
1.719232 -8355.372781 0.000000
0.000000 0.000000 0.000000
-8766.513648 1.000735 0.000000
1.000735 -8760.621690 0.000000
0.000000 0.000000 0.000000
-9156.820588 0.262183 0.000000
0.262183 -9150.366641 0.000000
0.000000 0.000000 0.000000
-9532.474840 -0.503286 0.000000
-0.503286 -9525.450437 0.000000
0.000000 0.000000 0.000000
-9899.175576 -1.294836 0.000000
-1.294836 -9891.586248 0.000000
0.000000 0.000000 0.000000
-10244.259860 -2.118022 0.000000
-2.118022 -10236.072474 0.000000
0.000000 0.000000 0.000000
-10578.421416 -2.979343 0.000000
-2.979343 -10569.620965 0.000000
0.000000 0.000000 0.000000
-10881.340505 -3.882923 0.000000
-3.882923 -10871.885127 0.000000
0.000000 0.000000 0.000000
-11156.705664 -4.837189 0.000000
-4.837189 -11146.545529 0.000000
0.000000 0.000000 0.000000
-1895.553476 10.935882 0.000000
10.935882 -1895.487418 0.000000
0.000000 0.000000 0.000000
-2402.626128 10.386089 0.000000
10.386089 -2402.549896 0.000000
0.000000 0.000000 0.000000
-2909.480530 9.828055 0.000000
9.828055 -2909.318320 0.000000
0.000000 0.000000 0.000000
-3411.664489 9.265966 0.000000
9.265966 -3411.346410 0.000000
0.000000 0.000000 0.000000
-3913.185778 8.694781 0.000000
8.694781 -3912.651092 0.000000
0.000000 0.000000 0.000000
-4411.185887 8.114893 0.000000
8.114893 -4410.370895 0.000000
0.000000 0.000000 0.000000
-4906.615306 7.525659 0.000000
7.525659 -4905.464627 0.000000
0.000000 0.000000 0.000000
-5398.664953 6.924043 0.000000
6.924043 -5397.137242 0.000000
0.000000 0.000000 0.000000
-5878.041861 6.318108 0.000000
6.318108 -5876.088978 0.000000
0.000000 0.000000 0.000000
-6359.101100 5.696033 0.000000
5.696033 -6356.693606 0.000000
0.000000 0.000000 0.000000
-6826.811159 5.070046 0.000000
5.070046 -6823.920186 0.000000
0.000000 0.000000 0.000000
-7290.187969 4.428430 0.000000
4.428430 -7286.793464 0.000000
0.000000 0.000000 0.000000
-7744.182378 3.776706 0.000000
3.776706 -7740.268042 0.000000
0.000000 0.000000 0.000000
-8183.590511 3.116020 0.000000
3.116020 -8179.144179 0.000000
0.000000 0.000000 0.000000
-8616.675080 2.441236 0.000000
2.441236 -8611.707043 0.000000
0.000000 0.000000 0.000000
-9037.571113 1.759250 0.000000
1.759250 -9032.071704 0.000000
0.000000 0.000000 0.000000
-9460.645039 1.056238 0.000000
1.056238 -9454.625720 0.000000
0.000000 0.000000 0.000000
-9871.714527 0.337077 0.000000
0.337077 -9865.177319 0.000000
0.000000 0.000000 0.000000
-10272.302925 -0.412067 0.000000
-0.412067 -10265.240460 0.000000
0.000000 0.000000 0.000000
-10662.446324 -1.192336 0.000000
-1.192336 -10654.865918 0.000000
0.000000 0.000000 0.000000
-11029.228170 -2.009172 0.000000
-2.009172 -11021.106967 0.000000
0.000000 0.000000 0.000000
-11379.966761 -2.869256 0.000000
-2.869256 -11371.292432 0.000000
0.000000 0.000000 0.000000
-11708.759093 -3.772236 0.000000
-3.772236 -11699.483856 0.000000
0.000000 0.000000 0.000000
-12016.311746 -4.732125 0.000000
-4.732125 -12006.388581 0.000000
0.000000 0.000000 0.000000
-2417.768839 10.998227 0.000000
10.998227 -2417.498941 0.000000
0.000000 0.000000 0.000000
-2945.447134 10.431649 0.000000
10.431649 -2945.123498 0.000000
0.000000 0.000000 0.000000
-3470.812616 9.862179 0.000000
9.862179 -3470.376877 0.000000
0.000000 0.000000 0.000000
-3991.094203 9.287402 0.000000
9.287402 -3990.481516 0.000000
0.000000 0.000000 0.000000
-4509.097592 8.705518 0.000000
8.705518 -4508.247752 0.000000
0.000000 0.000000 0.000000
-5021.914206 8.116482 0.000000
8.116482 -5020.778188 0.000000
0.000000 0.000000 0.000000
-5527.981346 7.520216 0.000000
7.520216 -5526.510133 0.000000
0.000000 0.000000 0.000000
-6029.975622 6.915591 0.000000
6.915591 -6028.126236 0.000000
0.000000 0.000000 0.000000
-6523.762443 6.303894 0.000000
6.303894 -6521.490252 0.000000
0.000000 0.000000 0.000000
-7009.237893 5.686971 0.000000
5.686971 -7006.526476 0.000000
0.000000 0.000000 0.000000
-7487.548199 5.063171 0.000000
5.063171 -7484.364572 0.000000
0.000000 0.000000 0.000000
-7956.747925 4.436631 0.000000
4.436631 -7953.077911 0.000000
0.000000 0.000000 0.000000
-8420.899406 3.800147 0.000000
3.800147 -8416.734940 0.000000
0.000000 0.000000 0.000000
-8873.130113 3.156588 0.000000
3.156588 -8868.457203 0.000000
0.000000 0.000000 0.000000
-9324.120077 2.495940 0.000000
2.495940 -9318.946950 0.000000
0.000000 0.000000 0.000000
-9760.205709 1.823230 0.000000
1.823230 -9754.536407 0.000000
0.000000 0.000000 0.000000
-10187.630235 1.131756 0.000000
1.131756 -10181.478490 0.000000
0.000000 0.000000 0.000000
-10609.956204 0.417203 0.000000
0.417203 -10603.332145 0.000000
0.000000 0.000000 0.000000
-11018.945642 -0.318696 0.000000
-0.318696 -11011.852636 0.000000
0.000000 0.000000 0.000000
-11427.074741 -1.092298 0.000000
-1.092298 -11419.511843 0.000000
0.000000 0.000000 0.000000
-11819.118146 -1.896390 0.000000
-1.896390 -11811.072717 0.000000
0.000000 0.000000 0.000000
-12204.804601 -2.750846 0.000000
-2.750846 -12196.252669 0.000000
0.000000 0.000000 0.000000
-12562.335404 -3.651875 0.000000
-3.651875 -12553.249058 0.000000
0.000000 0.000000 0.000000
-12895.442506 -4.614652 0.000000
-4.614652 -12885.789528 0.000000
0.000000 0.000000 0.000000
-2985.704393 11.033038 0.000000
11.033038 -2985.233868 0.000000
0.000000 0.000000 0.000000
-3527.942656 10.458463 0.000000
10.458463 -3527.390758 0.000000
0.000000 0.000000 0.000000
-4068.325280 9.878008 0.000000
9.878008 -4067.634445 0.000000
0.000000 0.000000 0.000000
-4603.967787 9.292930 0.000000
9.292930 -4603.077530 0.000000
0.000000 0.000000 0.000000
-5133.704726 8.703686 0.000000
8.703686 -5132.567019 0.000000
0.000000 0.000000 0.000000
-5659.131696 8.107816 0.000000
8.107816 -5657.696872 0.000000
0.000000 0.000000 0.000000
-6177.892144 7.507954 0.000000
7.507954 -6176.115009 0.000000
0.000000 0.000000 0.000000
-6688.534372 6.902777 0.000000
6.902777 -6686.379142 0.000000
0.000000 0.000000 0.000000
-7189.235988 6.294337 0.000000
6.294337 -7186.663327 0.000000
0.000000 0.000000 0.000000
-7685.506137 5.680530 0.000000
5.680530 -7682.488656 0.000000
0.000000 0.000000 0.000000
-8170.789402 5.065732 0.000000
5.065732 -8167.305767 0.000000
0.000000 0.000000 0.000000
-8648.467325 4.444726 0.000000
4.444726 -8644.512970 0.000000
0.000000 0.000000 0.000000
-9117.590287 3.821089 0.000000
3.821089 -9113.163163 0.000000
0.000000 0.000000 0.000000
-9579.288504 3.187651 0.000000
3.187651 -9574.386068 0.000000
0.000000 0.000000 0.000000
-10030.975231 2.548274 0.000000
2.548274 -10025.612372 0.000000
0.000000 0.000000 0.000000
-10478.552329 1.890803 0.000000
1.890803 -10472.730668 0.000000
0.000000 0.000000 0.000000
-10922.342141 1.217183 0.000000
1.217183 -10916.076666 0.000000
0.000000 0.000000 0.000000
-11359.619270 0.518322 0.000000
0.518322 -11352.920585 0.000000
0.000000 0.000000 0.000000
-11792.830675 -0.210987 0.000000
-0.210987 -11785.706015 0.000000
0.000000 0.000000 0.000000
-12217.269605 -0.973299 0.000000
-0.973299 -12209.725829 0.000000
0.000000 0.000000 0.000000
-12632.737063 -1.778457 0.000000
-1.778457 -12624.761615 0.000000
0.000000 0.000000 0.000000
-13033.416356 -2.626669 0.000000
-2.626669 -13025.002559 0.000000
0.000000 0.000000 0.000000
-13420.601232 -3.526455 0.000000
-3.526455 -13411.721713 0.000000
0.000000 0.000000 0.000000
-13792.801017 -4.481096 0.000000
-4.481096 -13783.420968 0.000000
0.000000 0.000000 0.000000
-3587.381007 11.052119 0.000000
11.052119 -3586.714871 0.000000
0.000000 0.000000 0.000000
-4148.700406 10.467773 0.000000
10.467773 -4147.926556 0.000000
0.000000 0.000000 0.000000
-4703.557421 9.879668 0.000000
9.879668 -4702.620880 0.000000
0.000000 0.000000 0.000000
-5250.164242 9.289075 0.000000
9.289075 -5249.014413 0.000000
0.000000 0.000000 0.000000
-5792.343040 8.692827 0.000000
8.692827 -5790.929377 0.000000
0.000000 0.000000 0.000000
-6327.155942 8.094401 0.000000
8.094401 -6325.429785 0.000000
0.000000 0.000000 0.000000
-6855.348984 7.493397 0.000000
7.493397 -6853.276047 0.000000
0.000000 0.000000 0.000000
-7375.051941 6.890926 0.000000
6.890926 -7372.594691 0.000000
0.000000 0.000000 0.000000
-7884.471793 6.286191 0.000000
6.286191 -7881.596335 0.000000
0.000000 0.000000 0.000000
-8383.763978 5.678449 0.000000
5.678449 -8380.455464 0.000000
0.000000 0.000000 0.000000
-8870.620067 5.070397 0.000000
5.070397 -8866.856769 0.000000
0.000000 0.000000 0.000000
-9352.982178 4.459284 0.000000
4.459284 -9348.759957 0.000000
0.000000 0.000000 0.000000
-9825.651487 3.848341 0.000000
3.848341 -9820.967074 0.000000
0.000000 0.000000 0.000000
-10292.728190 3.232966 0.000000
3.232966 -10287.594194 0.000000
0.000000 0.000000 0.000000
-10760.194663 2.607822 0.000000
2.607822 -10754.621318 0.000000
0.000000 0.000000 0.000000
-11218.206913 1.972406 0.000000
1.972406 -11212.213347 0.000000
0.000000 0.000000 0.000000
-11679.086856 1.311656 0.000000
1.311656 -11672.693790 0.000000
0.000000 0.000000 0.000000
-12128.475141 0.631875 0.000000
0.631875 -12121.696496 0.000000
0.000000 0.000000 0.000000
-12581.734306 -0.086967 0.000000
-0.086967 -12574.584623 0.000000
0.000000 0.000000 0.000000
-13024.390781 -0.840485 0.000000
-0.840485 -13016.876100 0.000000
0.000000 0.000000 0.000000
-13461.328920 -1.641668 0.000000
-1.641668 -13453.450560 0.000000
0.000000 0.000000 0.000000
-13888.456128 -2.491357 0.000000
-2.491357 -13880.194191 0.000000
0.000000 0.000000 0.000000
-14301.957667 -3.389841 0.000000
-3.389841 -14293.275419 0.000000
0.000000 0.000000 0.000000
-14702.788434 -4.347521 0.000000
-4.347521 -14693.675664 0.000000
0.000000 0.000000 0.000000
-4227.985014 11.048262 0.000000
11.048262 -4227.132331 0.000000
0.000000 0.000000 0.000000
-4801.725105 10.456162 0.000000
10.456162 -4800.741623 0.000000
0.000000 0.000000 0.000000
-5366.973478 9.863982 0.000000
9.863982 -5365.805592 0.000000
0.000000 0.000000 0.000000
-5927.649468 9.268502 0.000000
9.268502 -5926.247979 0.000000
0.000000 0.000000 0.000000
-6480.520139 8.668704 0.000000
8.668704 -6478.840015 0.000000
0.000000 0.000000 0.000000
-7020.497186 8.070037 0.000000
8.070037 -7018.492955 0.000000
0.000000 0.000000 0.000000
-7555.250360 7.468164 0.000000
7.468164 -7552.888702 0.000000
0.000000 0.000000 0.000000
-8078.900971 6.867912 0.000000
6.867912 -8076.148312 0.000000
0.000000 0.000000 0.000000
-8591.578842 6.269966 0.000000
6.269966 -8588.413061 0.000000
0.000000 0.000000 0.000000
-9097.681507 5.673899 0.000000
5.673899 -9094.083642 0.000000
0.000000 0.000000 0.000000
-9590.431640 5.081128 0.000000
5.081128 -9586.381200 0.000000
0.000000 0.000000 0.000000
-10078.110298 4.486992 0.000000
4.486992 -10073.610347 0.000000
0.000000 0.000000 0.000000
-10556.203990 3.893357 0.000000
3.893357 -10551.259558 0.000000
0.000000 0.000000 0.000000
-11030.723606 3.291696 0.000000
3.291696 -11025.348688 0.000000
0.000000 0.000000 0.000000
-11499.876822 2.682075 0.000000
2.682075 -11494.097655 0.000000
0.000000 0.000000 0.000000
-11964.527410 2.059725 0.000000
2.059725 -11958.365998 0.000000
0.000000 0.000000 0.000000
-12433.695573 1.414431 0.000000
1.414431 -12427.180969 0.000000
0.000000 0.000000 0.000000
-12900.771393 0.743180 0.000000
0.743180 -12893.924123 0.000000
0.000000 0.000000 0.000000
-13369.418204 0.037375 0.000000
0.037375 -13362.256745 0.000000
0.000000 0.000000 0.000000
-13837.062439 -0.709407 0.000000
-0.709407 -13829.595349 0.000000
0.000000 0.000000 0.000000
-14299.328722 -1.500732 0.000000
-1.500732 -14291.553842 0.000000
0.000000 0.000000 0.000000
-14756.663463 -2.350564 0.000000
-2.350564 -14748.559580 0.000000
0.000000 0.000000 0.000000
-15186.473281 -3.246807 0.000000
-3.246807 -15178.023544 0.000000
0.000000 0.000000 0.000000
-15612.006459 -4.212752 0.000000
-4.212752 -15603.200922 0.000000
0.000000 0.000000 0.000000
-4903.461045 11.025046 0.000000
11.025046 -4902.430106 0.000000
0.000000 0.000000 0.000000
-5487.559661 10.430367 0.000000
10.430367 -5486.368005 0.000000
0.000000 0.000000 0.000000
-6063.253555 9.835139 0.000000
9.835139 -6061.855490 0.000000
0.000000 0.000000 0.000000
-6632.879746 9.234562 0.000000
9.234562 -6631.234604 0.000000
0.000000 0.000000 0.000000
-7190.607055 8.635326 0.000000
8.635326 -7188.669083 0.000000
0.000000 0.000000 0.000000
-7738.977820 8.034912 0.000000
8.034912 -7736.705090 0.000000
0.000000 0.000000 0.000000
-8277.129940 7.435311 0.000000
7.435311 -8274.488776 0.000000
0.000000 0.000000 0.000000
-8802.954632 6.842082 0.000000
6.842082 -8799.911580 0.000000
0.000000 0.000000 0.000000
-9320.460602 6.252266 0.000000
6.252266 -9316.991679 0.000000
0.000000 0.000000 0.000000
-9827.929613 5.669410 0.000000
5.669410 -9824.021531 0.000000
0.000000 0.000000 0.000000
-10324.574038 5.091325 0.000000
5.091325 -10320.224392 0.000000
0.000000 0.000000 0.000000
-10813.828330 4.514468 0.000000
4.514468 -10809.044358 0.000000
0.000000 0.000000 0.000000
-11294.210787 3.939198 0.000000
3.939198 -11289.004413 0.000000
0.000000 0.000000 0.000000
-11771.030490 3.359539 0.000000
3.359539 -11765.424995 0.000000
0.000000 0.000000 0.000000
-12248.276519 2.770442 0.000000
2.770442 -12242.297257 0.000000
0.000000 0.000000 0.000000
-12729.873663 2.163413 0.000000
2.163413 -12723.551856 0.000000
0.000000 0.000000 0.000000
-13207.966463 1.536227 0.000000
1.536227 -13201.336539 0.000000
0.000000 0.000000 0.000000
-13692.190962 0.874121 0.000000
0.874121 -13685.282007 0.000000
0.000000 0.000000 0.000000
-14175.416190 0.177426 0.000000
0.177426 -14168.249124 0.000000
0.000000 0.000000 0.000000
-14660.459577 -0.564013 0.000000
-0.564013 -14653.041052 0.000000
0.000000 0.000000 0.000000
-15150.014456 -1.354186 0.000000
-1.354186 -15142.351040 0.000000
0.000000 0.000000 0.000000
-15626.634101 -2.200045 0.000000
-2.200045 -15618.728081 0.000000
0.000000 0.000000 0.000000
-16084.368103 -3.094349 0.000000
-3.094349 -16076.178444 0.000000
0.000000 0.000000 0.000000
-16547.491209 -4.054113 0.000000
-4.054113 -16538.990213 0.000000
0.000000 0.000000 0.000000
-5615.838003 10.994091 0.000000
10.994091 -5614.628860 0.000000
0.000000 0.000000 0.000000
-6204.308851 10.396080 0.000000
10.396080 -6202.918819 0.000000
0.000000 0.000000 0.000000
-6789.271949 9.793194 0.000000
9.793194 -6787.660587 0.000000
0.000000 0.000000 0.000000
-7365.058584 9.191624 0.000000
9.191624 -7363.180780 0.000000
0.000000 0.000000 0.000000
-7928.613486 8.592779 0.000000
8.592779 -7926.421973 0.000000
0.000000 0.000000 0.000000
-8483.147265 7.995221 0.000000
7.995221 -8480.605059 0.000000
0.000000 0.000000 0.000000
-9024.503612 7.403390 0.000000
7.403390 -9021.576071 0.000000
0.000000 0.000000 0.000000
-9551.516009 6.816971 0.000000
6.816971 -9548.173036 0.000000
0.000000 0.000000 0.000000
-10067.587526 6.236376 0.000000
6.236376 -10063.812620 0.000000
0.000000 0.000000 0.000000
-10569.816172 5.664865 0.000000
5.664865 -10565.604657 0.000000
0.000000 0.000000 0.000000
-11064.623810 5.099516 0.000000
5.099516 -11059.977047 0.000000
0.000000 0.000000 0.000000
-11551.174106 4.543566 0.000000
4.543566 -11546.098085 0.000000
0.000000 0.000000 0.000000
-12037.919874 3.988390 0.000000
3.988390 -12032.440454 0.000000
0.000000 0.000000 0.000000
-12524.234300 3.431138 0.000000
3.431138 -12518.380557 0.000000
0.000000 0.000000 0.000000
-13007.186333 2.864434 0.000000
2.864434 -13000.997597 0.000000
0.000000 0.000000 0.000000
-13494.190606 2.279186 0.000000
2.279186 -13487.709398 0.000000
0.000000 0.000000 0.000000
-13988.317183 1.666622 0.000000
1.666622 -13981.577460 0.000000
0.000000 0.000000 0.000000
-14487.576159 1.021264 0.000000
1.021264 -14480.617828 0.000000
0.000000 0.000000 0.000000
-14994.806546 0.329664 0.000000
0.329664 -14987.650748 0.000000
0.000000 0.000000 0.000000
-15498.778198 -0.411070 0.000000
-0.411070 -15491.435480 0.000000
0.000000 0.000000 0.000000
-16002.474048 -1.201102 0.000000
-1.201102 -15994.957736 0.000000
0.000000 0.000000 0.000000
-16506.672074 -2.043517 0.000000
-2.043517 -16498.960311 0.000000
0.000000 0.000000 0.000000
-17005.632157 -2.943478 0.000000
-2.943478 -16997.677726 0.000000
0.000000 0.000000 0.000000
-17481.050588 -3.891809 0.000000
-3.891809 -17472.859997 0.000000
0.000000 0.000000 0.000000
-6353.262478 10.947268 0.000000
10.947268 -6351.888490 0.000000
0.000000 0.000000 0.000000
-6953.810387 10.342967 0.000000
10.342967 -6952.233633 0.000000
0.000000 0.000000 0.000000
-7544.097987 9.740245 0.000000
9.740245 -7542.272808 0.000000
0.000000 0.000000 0.000000
-8123.861104 9.138835 0.000000
9.138835 -8121.745088 0.000000
0.000000 0.000000 0.000000
-8690.674037 8.541079 0.000000
8.541079 -8688.225568 0.000000
0.000000 0.000000 0.000000
-9244.273496 7.947525 0.000000
7.947525 -9241.458920 0.000000
0.000000 0.000000 0.000000
-9784.463199 7.361841 0.000000
7.361841 -9781.248878 0.000000
0.000000 0.000000 0.000000
-10311.930503 6.783577 0.000000
6.783577 -10308.293271 0.000000
0.000000 0.000000 0.000000
-10823.600519 6.218605 0.000000
6.218605 -10819.528123 0.000000
0.000000 0.000000 0.000000
-11325.342098 5.665462 0.000000
5.665462 -11320.820062 0.000000
0.000000 0.000000 0.000000
-11821.187950 5.121232 0.000000
5.121232 -11816.227157 0.000000
0.000000 0.000000 0.000000
-12307.825910 4.585838 0.000000
4.585838 -12302.444442 0.000000
0.000000 0.000000 0.000000
-12791.295730 4.051854 0.000000
4.051854 -12785.530971 0.000000
0.000000 0.000000 0.000000
-13273.427745 3.517302 0.000000
3.517302 -13267.322290 0.000000
0.000000 0.000000 0.000000
-13764.484381 2.968785 0.000000
2.968785 -13758.086483 0.000000
0.000000 0.000000 0.000000
-14264.049809 2.401331 0.000000
2.401331 -14257.412840 0.000000
0.000000 0.000000 0.000000
-14769.688557 1.805004 0.000000
1.805004 -14762.853644 0.000000
0.000000 0.000000 0.000000
-15286.822784 1.168035 0.000000
1.168035 -15279.832132 0.000000
0.000000 0.000000 0.000000
-15811.346892 0.486170 0.000000
0.486170 -15804.234259 0.000000
0.000000 0.000000 0.000000
-16334.187418 -0.246655 0.000000
-0.246655 -16326.954142 0.000000
0.000000 0.000000 0.000000
-16870.006427 -1.041305 0.000000
-1.041305 -16862.645093 0.000000
0.000000 0.000000 0.000000
-17398.986266 -1.888836 0.000000
-1.888836 -17391.488700 0.000000
0.000000 0.000000 0.000000
-17900.360903 -2.788312 0.000000
-2.788312 -17892.700075 0.000000
0.000000 0.000000 0.000000
-18399.297472 -3.745540 0.000000
-3.745540 -18391.453464 0.000000
0.000000 0.000000 0.000000
-7122.307438 10.880182 0.000000
10.880182 -7120.764701 0.000000
0.000000 0.000000 0.000000
-7727.495172 10.276399 0.000000
10.276399 -7725.726020 0.000000
0.000000 0.000000 0.000000
-8323.619319 9.670533 0.000000
9.670533 -8321.585252 0.000000
0.000000 0.000000 0.000000
-8902.722882 9.069447 0.000000
9.069447 -8900.375363 0.000000
0.000000 0.000000 0.000000
-9470.664641 8.472025 0.000000
8.472025 -9467.968014 0.000000
0.000000 0.000000 0.000000
-10023.414999 7.883254 0.000000
7.883254 -10020.326686 0.000000
0.000000 0.000000 0.000000
-10561.590306 7.306106 0.000000
7.306106 -10558.082243 0.000000
0.000000 0.000000 0.000000
-11081.104867 6.747505 0.000000
6.747505 -11077.154959 0.000000
0.000000 0.000000 0.000000
-11594.830924 6.197717 0.000000
6.197717 -11590.423486 0.000000
0.000000 0.000000 0.000000
-12092.201264 5.666529 0.000000
5.666529 -12087.341192 0.000000
0.000000 0.000000 0.000000
-12580.945985 5.146815 0.000000
5.146815 -12575.659980 0.000000
0.000000 0.000000 0.000000
-13060.322194 4.637512 0.000000
4.637512 -13054.635397 0.000000
0.000000 0.000000 0.000000
-13543.899860 4.129947 0.000000
4.129947 -13537.855280 0.000000
0.000000 0.000000 0.000000
-14034.259337 3.615712 0.000000
3.615712 -14027.911523 0.000000
0.000000 0.000000 0.000000
-14524.871787 3.093632 0.000000
3.093632 -14518.272091 0.000000
0.000000 0.000000 0.000000
-15035.797028 2.540413 0.000000
2.540413 -15029.014650 0.000000
0.000000 0.000000 0.000000
-15551.513208 1.958916 0.000000
1.958916 -15544.594146 0.000000
0.000000 0.000000 0.000000
-16083.899242 1.334351 0.000000
1.334351 -16076.888925 0.000000
0.000000 0.000000 0.000000
-16638.383633 0.654839 0.000000
0.654839 -16631.320326 0.000000
0.000000 0.000000 0.000000
-17189.516830 -0.073632 0.000000
-0.073632 -17182.398461 0.000000
0.000000 0.000000 0.000000
-17742.408463 -0.864074 0.000000
-0.864074 -17735.236258 0.000000
0.000000 0.000000 0.000000
-18296.255280 -1.725263 0.000000
-1.725263 -18289.023242 0.000000
0.000000 0.000000 0.000000
-18823.658792 -2.617855 0.000000
-2.617855 -18816.311387 0.000000
0.000000 0.000000 0.000000
-19357.041616 -3.572672 0.000000
-3.572672 -19349.531047 0.000000
0.000000 0.000000 0.000000
-7921.351830 10.805573 0.000000
10.805573 -7919.647119 0.000000
0.000000 0.000000 0.000000
-8529.375205 10.196918 0.000000
10.196918 -8527.431158 0.000000
0.000000 0.000000 0.000000
-9125.224404 9.588979 0.000000
9.588979 -9122.985849 0.000000
0.000000 0.000000 0.000000
-9704.922370 8.990594 0.000000
8.990594 -9702.346715 0.000000
0.000000 0.000000 0.000000
-10274.690993 8.395926 0.000000
8.395926 -10271.734436 0.000000
0.000000 0.000000 0.000000
-10820.869865 7.818576 0.000000
7.818576 -10817.494872 0.000000
0.000000 0.000000 0.000000
-11350.990348 7.256117 0.000000
7.256117 -11347.170054 0.000000
0.000000 0.000000 0.000000
-11870.453314 6.704958 0.000000
6.704958 -11866.171348 0.000000
0.000000 0.000000 0.000000
-12366.041598 6.177127 0.000000
6.177127 -12361.291081 0.000000
0.000000 0.000000 0.000000
-12852.086675 5.666715 0.000000
5.666715 -12846.889454 0.000000
0.000000 0.000000 0.000000
-13334.704553 5.172695 0.000000
5.172695 -13329.074820 0.000000
0.000000 0.000000 0.000000
-13818.797195 4.688634 0.000000
4.688634 -13812.782139 0.000000
0.000000 0.000000 0.000000
-14297.311511 4.214381 0.000000
4.214381 -14290.971241 0.000000
0.000000 0.000000 0.000000
-14788.299403 3.728911 0.000000
3.728911 -14781.695066 0.000000
0.000000 0.000000 0.000000
-15289.551918 3.229124 0.000000
3.229124 -15282.755445 0.000000
0.000000 0.000000 0.000000
-15809.549694 2.702173 0.000000
2.702173 -15802.633604 0.000000
0.000000 0.000000 0.000000
-16349.388235 2.128344 0.000000
2.128344 -16342.403110 0.000000
0.000000 0.000000 0.000000
-16896.257832 1.515176 0.000000
1.515176 -16889.253622 0.000000
0.000000 0.000000 0.000000
-17466.764714 0.838640 0.000000
0.838640 -17459.771323 0.000000
0.000000 0.000000 0.000000
-18048.514027 0.097816 0.000000
0.097816 -18041.546544 0.000000
0.000000 0.000000 0.000000
-18617.673108 -0.690429 0.000000
-0.690429 -18610.725822 0.000000
0.000000 0.000000 0.000000
-19203.095102 -1.547280 0.000000
-1.547280 -19196.119093 0.000000
0.000000 0.000000 0.000000
-19771.880469 -2.457063 0.000000
-2.457063 -19764.822240 0.000000
0.000000 0.000000 0.000000
-20308.520592 -3.404042 0.000000
-3.404042 -20301.357050 0.000000
0.000000 0.000000 0.000000
-8741.001471 10.712848 0.000000
10.712848 -8739.152471 0.000000
0.000000 0.000000 0.000000
-9357.089297 10.098728 0.000000
10.098728 -9354.963745 0.000000
0.000000 0.000000 0.000000
-9947.855881 9.498572 0.000000
9.498572 -9945.404199 0.000000
0.000000 0.000000 0.000000
-10531.454826 8.896789 0.000000
8.896789 -10528.638524 0.000000
0.000000 0.000000 0.000000
-11087.742726 8.312352 0.000000
8.312352 -11084.514866 0.000000
0.000000 0.000000 0.000000
-11629.446490 7.739692 0.000000
7.739692 -11625.775326 0.000000
0.000000 0.000000 0.000000
-12149.573999 7.187844 0.000000
7.187844 -12145.432097 0.000000
0.000000 0.000000 0.000000
-12655.344680 6.656164 0.000000
6.656164 -12650.725449 0.000000
0.000000 0.000000 0.000000
-13137.876018 6.156801 0.000000
6.156801 -13132.773067 0.000000
0.000000 0.000000 0.000000
-13623.323140 5.669094 0.000000
5.669094 -13617.756304 0.000000
0.000000 0.000000 0.000000
-14090.537802 5.208509 0.000000
5.208509 -14084.548001 0.000000
0.000000 0.000000 0.000000
-14554.919957 4.762340 0.000000
4.762340 -14548.570193 0.000000
0.000000 0.000000 0.000000
-15041.706342 4.308128 0.000000
4.308128 -15035.063248 0.000000
0.000000 0.000000 0.000000
-15528.310491 3.855286 0.000000
3.855286 -15521.456236 0.000000
0.000000 0.000000 0.000000
-16038.485049 3.375120 0.000000
3.375120 -16031.499569 0.000000
0.000000 0.000000 0.000000
-16573.223452 2.861596 0.000000
2.861596 -16566.187402 0.000000
0.000000 0.000000 0.000000
-17119.003132 2.308994 0.000000
2.308994 -17111.978313 0.000000
0.000000 0.000000 0.000000
-17701.477425 1.688692 0.000000
1.688692 -17694.513191 0.000000
0.000000 0.000000 0.000000
-18286.105102 1.019851 0.000000
1.019851 -18279.231180 0.000000
0.000000 0.000000 0.000000
-18885.380335 0.287367 0.000000
0.287367 -18878.600007 0.000000
0.000000 0.000000 0.000000
-19516.766011 -0.528753 0.000000
-0.528753 -19510.046888 0.000000
0.000000 0.000000 0.000000
-20104.712771 -1.377265 0.000000
-1.377265 -20098.027980 0.000000
0.000000 0.000000 0.000000
-20688.907926 -2.295703 0.000000
-2.295703 -20682.201900 0.000000
0.000000 0.000000 0.000000
-21257.374280 -3.256155 0.000000
-3.256155 -21250.588804 0.000000
0.000000 0.000000 0.000000
-9598.879370 10.601994 0.000000
10.601994 -9596.865431 0.000000
0.000000 0.000000 0.000000
-10203.461244 9.997403 0.000000
9.997403 -10201.144430 0.000000
0.000000 0.000000 0.000000
-10798.841961 9.389216 0.000000
9.389216 -10796.182405 0.000000
0.000000 0.000000 0.000000
-11369.781244 8.793156 0.000000
8.793156 -11366.723714 0.000000
0.000000 0.000000 0.000000
-11919.599298 8.211746 0.000000
8.211746 -11916.100725 0.000000
0.000000 0.000000 0.000000
-12445.484504 7.653200 0.000000
7.653200 -12441.501307 0.000000
0.000000 0.000000 0.000000
-12958.528385 7.116996 0.000000
7.116996 -12954.048213 0.000000
0.000000 0.000000 0.000000
-13443.135817 6.616647 0.000000
6.616647 -13438.136322 0.000000
0.000000 0.000000 0.000000
-13923.178565 6.135541 0.000000
6.135541 -13917.682124 0.000000
0.000000 0.000000 0.000000
-14379.197359 5.691332 0.000000
5.691332 -14373.239900 0.000000
0.000000 0.000000 0.000000
-14838.817726 5.262019 0.000000
5.262019 -14832.456167 0.000000
0.000000 0.000000 0.000000
-15307.109168 4.840629 0.000000
4.840629 -15300.405572 0.000000
0.000000 0.000000 0.000000
-15776.945116 4.430069 0.000000
4.430069 -15770.005460 0.000000
0.000000 0.000000 0.000000
-16271.216585 3.997933 0.000000
3.997933 -16264.117538 0.000000
0.000000 0.000000 0.000000
-16785.382311 3.544714 0.000000
3.544714 -16778.223068 0.000000
0.000000 0.000000 0.000000
-17334.274185 3.045958 0.000000
3.045958 -17327.139149 0.000000
0.000000 0.000000 0.000000
-17903.414877 2.503986 0.000000
2.503986 -17896.367484 0.000000
0.000000 0.000000 0.000000
-18507.034295 1.896789 0.000000
1.896789 -18500.128666 0.000000
0.000000 0.000000 0.000000
-19136.459767 1.221751 0.000000
1.221751 -19129.711627 0.000000
0.000000 0.000000 0.000000
-19768.585613 0.483588 0.000000
0.483588 -19761.993892 0.000000
0.000000 0.000000 0.000000
-20406.547956 -0.330136 0.000000
-0.330136 -20400.097049 0.000000
0.000000 0.000000 0.000000
-21040.449881 -1.211371 0.000000
-1.211371 -21034.094152 0.000000
0.000000 0.000000 0.000000
-21638.511345 -2.118838 0.000000
-2.118838 -21632.153108 0.000000
0.000000 0.000000 0.000000
-22241.437249 -3.079483 0.000000
-3.079483 -22234.996461 0.000000
0.000000 0.000000 0.000000
-10466.796232 10.483998 0.000000
10.483998 -10464.638314 0.000000
0.000000 0.000000 0.000000
-11070.069769 9.869525 0.000000
9.869525 -11067.585811 0.000000
0.000000 0.000000 0.000000
-11660.837022 9.259043 0.000000
9.259043 -11657.968041 0.000000
0.000000 0.000000 0.000000
-12221.155890 8.671030 0.000000
8.671030 -12217.848028 0.000000
0.000000 0.000000 0.000000
-12763.146129 8.099046 0.000000
8.099046 -12759.353713 0.000000
0.000000 0.000000 0.000000
-13271.943465 7.559354 0.000000
7.559354 -13267.621674 0.000000
0.000000 0.000000 0.000000
-13767.308294 7.041037 0.000000
7.041037 -13762.449499 0.000000
0.000000 0.000000 0.000000
-14229.323167 6.566821 0.000000
6.566821 -14223.922525 0.000000
0.000000 0.000000 0.000000
-14683.803239 6.121476 0.000000
6.121476 -14677.893545 0.000000
0.000000 0.000000 0.000000
-15129.733261 5.709874 0.000000
5.709874 -15123.363761 0.000000
0.000000 0.000000 0.000000
-15576.801226 5.317338 0.000000
5.317338 -15570.036760 0.000000
0.000000 0.000000 0.000000
-16020.536086 4.947320 0.000000
4.947320 -16013.480099 0.000000
0.000000 0.000000 0.000000
-16500.656986 4.560381 0.000000
4.560381 -16493.411141 0.000000
0.000000 0.000000 0.000000
-16992.578974 4.165714 0.000000
4.165714 -16985.245348 0.000000
0.000000 0.000000 0.000000
-17528.379248 3.726702 0.000000
3.726702 -17521.062564 0.000000
0.000000 0.000000 0.000000
-18087.055054 3.250897 0.000000
3.250897 -18079.838688 0.000000
0.000000 0.000000 0.000000
-18692.982163 2.708025 0.000000
2.708025 -18685.932565 0.000000
0.000000 0.000000 0.000000
-19322.866099 2.105862 0.000000
2.105862 -19316.029320 0.000000
0.000000 0.000000 0.000000
-19971.259580 1.435813 0.000000
1.435813 -19964.666992 0.000000
0.000000 0.000000 0.000000
-20654.878515 0.674485 0.000000
0.674485 -20648.516877 0.000000
0.000000 0.000000 0.000000
-21314.656189 -0.131206 0.000000
-0.131206 -21308.505261 0.000000
0.000000 0.000000 0.000000
-21996.242791 -1.026353 0.000000
-1.026353 -21990.202446 0.000000
0.000000 0.000000 0.000000
-22637.982380 -1.960459 0.000000
-1.960459 -22631.954429 0.000000
0.000000 0.000000 0.000000
-23229.579827 -2.916783 0.000000
-2.916783 -23223.487897 0.000000
0.000000 0.000000 0.000000
-11352.548535 10.344060 0.000000
10.344060 -11350.252148 0.000000
0.000000 0.000000 0.000000
-11964.639500 9.719575 0.000000
9.719575 -11961.969295 0.000000
0.000000 0.000000 0.000000
-12537.678652 9.120133 0.000000
9.120133 -12534.581560 0.000000
0.000000 0.000000 0.000000
-13089.696777 8.534272 0.000000
8.534272 -13086.115383 0.000000
0.000000 0.000000 0.000000
-13606.009747 7.976524 0.000000
7.976524 -13601.889167 0.000000
0.000000 0.000000 0.000000
-14103.455770 7.445604 0.000000
7.445604 -14098.782455 0.000000
0.000000 0.000000 0.000000
-14556.744662 6.963168 0.000000
6.963168 -14551.489417 0.000000
0.000000 0.000000 0.000000
-15006.354830 6.508932 0.000000
6.508932 -15000.534860 0.000000
0.000000 0.000000 0.000000
-15426.170681 6.109415 0.000000
6.109415 -15419.814346 0.000000
0.000000 0.000000 0.000000
-15852.942738 5.736861 0.000000
5.736861 -15846.135049 0.000000
0.000000 0.000000 0.000000
-16272.581913 5.396091 0.000000
5.396091 -16265.409826 0.000000
0.000000 0.000000 0.000000
-16723.863668 5.052075 0.000000
5.052075 -16716.444612 0.000000
0.000000 0.000000 0.000000
-17192.888593 4.707963 0.000000
4.707963 -17185.341554 0.000000
0.000000 0.000000 0.000000
-17695.803371 4.336218 0.000000
4.336218 -17688.250639 0.000000
0.000000 0.000000 0.000000
-18240.656601 3.919890 0.000000
3.919890 -18233.197345 0.000000
0.000000 0.000000 0.000000
-18826.894883 3.450276 0.000000
3.450276 -18819.622073 0.000000
0.000000 0.000000 0.000000
-19447.895636 2.919141 0.000000
2.919141 -19440.875757 0.000000
0.000000 0.000000 0.000000
-20109.668667 2.312411 0.000000
2.312411 -20102.947268 0.000000
0.000000 0.000000 0.000000
-20802.901731 1.630896 0.000000
1.630896 -20796.495787 0.000000
0.000000 0.000000 0.000000
-21505.522135 0.886622 0.000000
0.886622 -21499.415965 0.000000
0.000000 0.000000 0.000000
-22247.236857 0.045267 0.000000
0.045267 -22241.374502 0.000000
0.000000 0.000000 0.000000
-22941.090029 -0.842183 0.000000
-0.842183 -22935.399063 0.000000
0.000000 0.000000 0.000000
-23608.256568 -1.799033 0.000000
-1.799033 -23602.630579 0.000000
0.000000 0.000000 0.000000
-24238.886362 -2.776819 0.000000
-2.776819 -24233.171464 0.000000
0.000000 0.000000 0.000000
-12282.007003 10.174972 0.000000
10.174972 -12279.557292 0.000000
0.000000 0.000000 0.000000
-12864.657721 9.561715 0.000000
9.561715 -12861.803264 0.000000
0.000000 0.000000 0.000000
-13426.228434 8.957527 0.000000
8.957527 -13422.893178 0.000000
0.000000 0.000000 0.000000
-13963.941340 8.373158 0.000000
8.373158 -13960.075706 0.000000
0.000000 0.000000 0.000000
-14448.868809 7.835280 0.000000
7.835280 -14444.413045 0.000000
0.000000 0.000000 0.000000
-14919.892669 7.328796 0.000000
7.328796 -14914.830137 0.000000
0.000000 0.000000 0.000000
-15354.940677 6.875803 0.000000
6.875803 -15349.239733 0.000000
0.000000 0.000000 0.000000
-15764.894506 6.473776 0.000000
6.473776 -15758.593295 0.000000
0.000000 0.000000 0.000000
-16156.546000 6.119752 0.000000
6.119752 -16149.707378 0.000000
0.000000 0.000000 0.000000
-16563.193789 5.791934 0.000000
5.791934 -16555.916823 0.000000
0.000000 0.000000 0.000000
-16966.018819 5.496045 0.000000
5.496045 -16958.421561 0.000000
0.000000 0.000000 0.000000
-17402.706784 5.194684 0.000000
5.194684 -17394.922320 0.000000
0.000000 0.000000 0.000000
-17867.171164 4.883711 0.000000
4.883711 -17859.335139 0.000000
0.000000 0.000000 0.000000
-18393.395976 4.525903 0.000000
4.525903 -18385.636202 0.000000
0.000000 0.000000 0.000000
-18948.391257 4.135585 0.000000
4.135585 -18940.809597 0.000000
0.000000 0.000000 0.000000
-19567.926871 3.671428 0.000000
3.671428 -19560.616072 0.000000
0.000000 0.000000 0.000000
-20229.750069 3.143601 0.000000
3.143601 -20222.773374 0.000000
0.000000 0.000000 0.000000
-20925.004757 2.550655 0.000000
2.550655 -20918.394363 0.000000
0.000000 0.000000 0.000000
-21680.745334 1.858373 0.000000
1.858373 -21674.509988 0.000000
0.000000 0.000000 0.000000
-22430.189180 1.106094 0.000000
1.106094 -22424.312515 0.000000
0.000000 0.000000 0.000000
-23204.859647 0.255537 0.000000
0.255537 -23199.308378 0.000000
0.000000 0.000000 0.000000
-23942.343033 -0.654635 0.000000
-0.654635 -23937.031401 0.000000
0.000000 0.000000 0.000000
-24651.186934 -1.627728 0.000000
-1.627728 -24645.940029 0.000000
0.000000 0.000000 0.000000
-25310.775069 -2.633559 0.000000
-2.633559 -25305.398817 0.000000
0.000000 0.000000 0.000000
-13202.278921 10.006321 0.000000
10.006321 -13199.697471 0.000000
0.000000 0.000000 0.000000
-13786.407914 9.372472 0.000000
9.372472 -13783.369261 0.000000
0.000000 0.000000 0.000000
-14328.223574 8.766213 0.000000
8.766213 -14324.650672 0.000000
0.000000 0.000000 0.000000
-14821.391816 8.202197 0.000000
8.202197 -14817.213338 0.000000
0.000000 0.000000 0.000000
-15297.189740 7.671558 0.000000
7.671558 -15292.362757 0.000000
0.000000 0.000000 0.000000
-15725.729386 7.200471 0.000000
7.200471 -15720.201300 0.000000
0.000000 0.000000 0.000000
-16122.423609 6.788836 0.000000
6.788836 -16116.235811 0.000000
0.000000 0.000000 0.000000
-16488.941431 6.437973 0.000000
6.437973 -16482.128510 0.000000
0.000000 0.000000 0.000000
-16865.306409 6.123276 0.000000
6.123276 -16857.958958 0.000000
0.000000 0.000000 0.000000
-17216.794343 5.869171 0.000000
5.869171 -17209.035502 0.000000
0.000000 0.000000 0.000000
-17617.948052 5.607693 0.000000
5.607693 -17609.929081 0.000000
0.000000 0.000000 0.000000
-18041.461332 5.349851 0.000000
5.349851 -18033.330564 0.000000
0.000000 0.000000 0.000000
-18516.847082 5.057853 0.000000
5.057853 -18508.748346 0.000000
0.000000 0.000000 0.000000
-19045.387525 4.727076 0.000000
4.727076 -19037.440809 0.000000
0.000000 0.000000 0.000000
-19639.309648 4.335248 0.000000
4.335248 -19631.629380 0.000000
0.000000 0.000000 0.000000
-20281.348478 3.888992 0.000000
3.888992 -20274.006060 0.000000
0.000000 0.000000 0.000000
-20991.657310 3.367469 0.000000
3.367469 -20984.717822 0.000000
0.000000 0.000000 0.000000
-21754.928439 2.764486 0.000000
2.764486 -21748.418113 0.000000
0.000000 0.000000 0.000000
-22528.093429 2.096041 0.000000
2.096041 -22522.047900 0.000000
0.000000 0.000000 0.000000
-23353.495526 1.317137 0.000000
1.317137 -23347.873604 0.000000
0.000000 0.000000 0.000000
-24168.581393 0.479898 0.000000
0.479898 -24163.350572 0.000000
0.000000 0.000000 0.000000
-24998.206498 -0.452200 0.000000
-0.452200 -24993.234680 0.000000
0.000000 0.000000 0.000000
-25779.544734 -1.448068 0.000000
-1.448068 -25774.638792 0.000000
0.000000 0.000000 0.000000
-26466.307941 -2.467857 0.000000
-2.467857 -26461.274508 0.000000
0.000000 0.000000 0.000000
-14166.387258 9.798408 0.000000
9.798408 -14163.690882 0.000000
0.000000 0.000000 0.000000
-14716.586175 9.166598 0.000000
9.166598 -14713.349775 0.000000
0.000000 0.000000 0.000000
-15236.527121 8.563890 0.000000
8.563890 -15232.694004 0.000000
0.000000 0.000000 0.000000
-15694.829069 8.011242 0.000000
8.011242 -15690.295732 0.000000
0.000000 0.000000 0.000000
-16135.015039 7.494829 0.000000
7.494829 -16129.752459 0.000000
0.000000 0.000000 0.000000
-16498.467601 7.069215 0.000000
7.069215 -16492.462688 0.000000
0.000000 0.000000 0.000000
-16850.349655 6.699453 0.000000
6.699453 -16843.628594 0.000000
0.000000 0.000000 0.000000
-17179.113799 6.399880 0.000000
6.399880 -17171.736558 0.000000
0.000000 0.000000 0.000000
-17491.110147 6.169297 0.000000
6.169297 -17483.220127 0.000000
0.000000 0.000000 0.000000
-17841.643765 5.950845 0.000000
5.950845 -17833.393568 0.000000
0.000000 0.000000 0.000000
-18223.483616 5.740085 0.000000
5.740085 -18215.051528 0.000000
0.000000 0.000000 0.000000
-18643.338315 5.521516 0.000000
5.521516 -18634.877283 0.000000
0.000000 0.000000 0.000000
-19147.091470 5.244197 0.000000
5.244197 -19138.747657 0.000000
0.000000 0.000000 0.000000
-19687.662297 4.932575 0.000000
4.932575 -19679.552612 0.000000
0.000000 0.000000 0.000000
-20319.912090 4.549559 0.000000
4.549559 -20312.135142 0.000000
0.000000 0.000000 0.000000
-21008.777720 4.104003 0.000000
4.104003 -21001.395438 0.000000
0.000000 0.000000 0.000000
-21756.241500 3.589682 0.000000
3.589682 -21749.320744 0.000000
0.000000 0.000000 0.000000
-22561.041640 3.001288 0.000000
3.001288 -22554.629813 0.000000
0.000000 0.000000 0.000000
-23427.546741 2.320118 0.000000
2.320118 -23421.660380 0.000000
0.000000 0.000000 0.000000
-24305.740993 1.565265 0.000000
1.565265 -24300.337665 0.000000
0.000000 0.000000 0.000000
-25210.408459 0.712450 0.000000
0.712450 -25205.434512 0.000000
0.000000 0.000000 0.000000
-26107.055527 -0.239681 0.000000
-0.239681 -26102.401829 0.000000
0.000000 0.000000 0.000000
-26919.919436 -1.264961 0.000000
-1.264961 -26915.401514 0.000000
0.000000 0.000000 0.000000
-27655.767379 -2.338532 0.000000
-2.338532 -27651.109962 0.000000
0.000000 0.000000 0.000000
-15137.122318 9.550666 0.000000
9.550666 -15134.281634 0.000000
0.000000 0.000000 0.000000
-15656.733541 8.928155 0.000000
8.928155 -15653.301361 0.000000
0.000000 0.000000 0.000000
-16127.493809 8.334885 0.000000
8.334885 -16123.353256 0.000000
0.000000 0.000000 0.000000
-16574.904825 7.773299 0.000000
7.773299 -16570.004546 0.000000
0.000000 0.000000 0.000000
-16912.327524 7.321634 0.000000
7.321634 -16906.604451 0.000000
0.000000 0.000000 0.000000
-17252.544820 6.920270 0.000000
6.920270 -17245.991387 0.000000
0.000000 0.000000 0.000000
-17537.162933 6.628033 0.000000
6.628033 -17529.824547 0.000000
0.000000 0.000000 0.000000
-17807.355853 6.406284 0.000000
6.406284 -17799.386860 0.000000
0.000000 0.000000 0.000000
-18094.877217 6.221399 0.000000
6.221399 -18086.430307 0.000000
0.000000 0.000000 0.000000
-18413.580993 6.061057 0.000000
6.061057 -18404.859305 0.000000
0.000000 0.000000 0.000000
-18768.765432 5.900794 0.000000
5.900794 -18759.928702 0.000000
0.000000 0.000000 0.000000
-19226.094084 5.679293 0.000000
5.679293 -19217.333484 0.000000
0.000000 0.000000 0.000000
-19721.277483 5.432309 0.000000
5.432309 -19712.717417 0.000000
0.000000 0.000000 0.000000
-20311.143537 5.118567 0.000000
5.118567 -20302.869407 0.000000
0.000000 0.000000 0.000000
-20979.846586 4.743896 0.000000
4.743896 -20971.963225 0.000000
0.000000 0.000000 0.000000
-21709.131233 4.309649 0.000000
4.309649 -21701.702803 0.000000
0.000000 0.000000 0.000000
-22525.960536 3.796630 0.000000
3.796630 -22519.034458 0.000000
0.000000 0.000000 0.000000
-23381.812109 3.236805 0.000000
3.236805 -23375.454228 0.000000
0.000000 0.000000 0.000000
-24340.817352 2.554719 0.000000
2.554719 -24335.015448 0.000000
0.000000 0.000000 0.000000
-25284.396561 1.818034 0.000000
1.818034 -25279.146701 0.000000
0.000000 0.000000 0.000000
-26285.716712 0.951867 0.000000
0.951867 -26280.980268 0.000000
0.000000 0.000000 0.000000
-27259.078308 -0.007300 0.000000
-0.007300 -27254.768677 0.000000
0.000000 0.000000 0.000000
-28167.293375 -1.052482 0.000000
-1.052482 -28163.141625 0.000000
0.000000 0.000000 0.000000
-28999.690702 -2.179625 0.000000
-2.179625 -28995.360941 0.000000
0.000000 0.000000 0.000000
-16070.037955 9.296516 0.000000
9.296516 -16067.040480 0.000000
0.000000 0.000000 0.000000
-16597.288129 8.640550 0.000000
8.640550 -16593.629612 0.000000
0.000000 0.000000 0.000000
-17035.143566 8.047275 0.000000
8.047275 -17030.692516 0.000000
0.000000 0.000000 0.000000
-17379.273435 7.547612 0.000000
7.547612 -17373.934675 0.000000
0.000000 0.000000 0.000000
-17703.454009 7.108368 0.000000
7.108368 -17697.168480 0.000000
0.000000 0.000000 0.000000
-17949.548211 6.796653 0.000000
6.796653 -17942.338545 0.000000
0.000000 0.000000 0.000000
-18160.213789 6.580029 0.000000
6.580029 -18152.237071 0.000000
0.000000 0.000000 0.000000
-18381.558925 6.423581 0.000000
6.423581 -18372.978429 0.000000
0.000000 0.000000 0.000000
-18601.805637 6.320497 0.000000
6.320497 -18592.820025 0.000000
0.000000 0.000000 0.000000
-18917.104183 6.179369 0.000000
6.179369 -18907.930479 0.000000
0.000000 0.000000 0.000000
-19274.558435 6.035500 0.000000
6.035500 -19265.392135 0.000000
0.000000 0.000000 0.000000
-19728.696260 5.837820 0.000000
5.837820 -19719.679427 0.000000
0.000000 0.000000 0.000000
-20279.875070 5.578530 0.000000
5.578530 -20271.091858 0.000000
0.000000 0.000000 0.000000
-20902.265635 5.277528 0.000000
5.277528 -20893.831181 0.000000
0.000000 0.000000 0.000000
-21613.072354 4.916262 0.000000
4.916262 -21605.066570 0.000000
0.000000 0.000000 0.000000
-22422.344830 4.483143 0.000000
4.483143 -22414.812072 0.000000
0.000000 0.000000 0.000000
-23263.088650 4.026292 0.000000
4.026292 -23256.078187 0.000000
0.000000 0.000000 0.000000
-24266.898954 3.443998 0.000000
3.443998 -24260.484810 0.000000
0.000000 0.000000 0.000000
-25262.254182 2.828169 0.000000
2.828169 -25256.464266 0.000000
0.000000 0.000000 0.000000
-26328.247528 2.093100 0.000000
2.093100 -26323.116376 0.000000
0.000000 0.000000 0.000000
-27409.696944 1.240553 0.000000
1.240553 -27405.149416 0.000000
0.000000 0.000000 0.000000
-28534.764705 0.257670 0.000000
0.257670 -28530.700654 0.000000
0.000000 0.000000 0.000000
-29574.712301 -0.809294 0.000000
-0.809294 -29570.833400 0.000000
0.000000 0.000000 0.000000
-30513.676822 -1.976369 0.000000
-1.976369 -30509.614087 0.000000
0.000000 0.000000 0.000000
-17090.567350 8.965574 0.000000
8.965574 -17087.475671 0.000000
0.000000 0.000000 0.000000
-17518.436027 8.326476 0.000000
8.326476 -17514.524860 0.000000
0.000000 0.000000 0.000000
-17889.966843 7.752691 0.000000
7.752691 -17885.114654 0.000000
0.000000 0.000000 0.000000
-18206.670604 7.262884 0.000000
7.262884 -18200.792437 0.000000
0.000000 0.000000 0.000000
-18411.457829 6.909602 0.000000
6.909602 -18404.513293 0.000000
0.000000 0.000000 0.000000
-18546.671234 6.689290 0.000000
6.689290 -18538.797257 0.000000
0.000000 0.000000 0.000000
-18684.199630 6.558425 0.000000
6.558425 -18675.540884 0.000000
0.000000 0.000000 0.000000
-18843.066236 6.491103 0.000000
6.491103 -18833.866005 0.000000
0.000000 0.000000 0.000000
-19094.824223 6.405630 0.000000
6.405630 -19085.372389 0.000000
0.000000 0.000000 0.000000
-19341.044625 6.337439 0.000000
6.337439 -19331.496009 0.000000
0.000000 0.000000 0.000000
-19751.164713 6.169173 0.000000
6.169173 -19741.704357 0.000000
0.000000 0.000000 0.000000
-20249.267965 5.955708 0.000000
5.955708 -20239.988741 0.000000
0.000000 0.000000 0.000000
-20806.540086 5.714557 0.000000
5.714557 -20797.537148 0.000000
0.000000 0.000000 0.000000
-21486.131567 5.413401 0.000000
5.413401 -21477.491041 0.000000
0.000000 0.000000 0.000000
-22269.447436 5.062478 0.000000
5.062478 -22261.221624 0.000000
0.000000 0.000000 0.000000
-23133.178939 4.666958 0.000000
4.666958 -23125.425771 0.000000
0.000000 0.000000 0.000000
-24069.585374 4.222701 0.000000
4.222701 -24062.377646 0.000000
0.000000 0.000000 0.000000
-25127.926029 3.684293 0.000000
3.684293 -25121.342935 0.000000
0.000000 0.000000 0.000000
-26217.328441 3.110960 0.000000
3.110960 -26211.420775 0.000000
0.000000 0.000000 0.000000
-27447.459137 2.396338 0.000000
2.396338 -27442.305255 0.000000
0.000000 0.000000 0.000000
-28660.290139 1.591436 0.000000
1.591436 -28655.771975 0.000000
0.000000 0.000000 0.000000
-29965.670027 0.591692 0.000000
0.591692 -29961.712610 0.000000
0.000000 0.000000 0.000000
-31137.082127 -0.530176 0.000000
-0.530176 -31133.447769 0.000000
0.000000 0.000000 0.000000
-32192.636892 -1.820017 0.000000
-1.820017 -32188.841986 0.000000
0.000000 0.000000 0.000000
-18060.646700 8.622894 0.000000
8.622894 -18057.401180 0.000000
0.000000 0.000000 0.000000
-18457.848638 7.957429 0.000000
7.957429 -18453.641434 0.000000
0.000000 0.000000 0.000000
-18738.181420 7.402669 0.000000
7.402669 -18732.868494 0.000000
0.000000 0.000000 0.000000
-18930.485029 6.961440 0.000000
6.961440 -18923.986320 0.000000
0.000000 0.000000 0.000000
-18976.137383 6.733587 0.000000
6.733587 -18968.485110 0.000000
0.000000 0.000000 0.000000
-19055.897068 6.599833 0.000000
6.599833 -19047.244923 0.000000
0.000000 0.000000 0.000000
-19128.130401 6.570906 0.000000
6.570906 -19118.787433 0.000000
0.000000 0.000000 0.000000
-19221.712620 6.576024 0.000000
6.576024 -19211.986603 0.000000
0.000000 0.000000 0.000000
-19426.198746 6.520906 0.000000
6.520906 -19416.343967 0.000000
0.000000 0.000000 0.000000
-19756.313121 6.395123 0.000000
6.395123 -19746.470472 0.000000
0.000000 0.000000 0.000000
-20180.160843 6.235761 0.000000
6.235761 -20170.432837 0.000000
0.000000 0.000000 0.000000
-20683.005653 6.038574 0.000000
6.038574 -20673.489743 0.000000
0.000000 0.000000 0.000000
-21311.777521 5.781239 0.000000
5.781239 -21302.504352 0.000000
0.000000 0.000000 0.000000
-22053.645928 5.488249 0.000000
5.488249 -22044.704043 0.000000
0.000000 0.000000 0.000000
-22902.375194 5.156230 0.000000
5.156230 -22893.821590 0.000000
0.000000 0.000000 0.000000
-23787.291658 4.830190 0.000000
4.830190 -23779.203557 0.000000
0.000000 0.000000 0.000000
-24876.385579 4.383169 0.000000
4.383169 -24868.859763 0.000000
0.000000 0.000000 0.000000
-25989.390550 3.931131 0.000000
3.931131 -25982.493975 0.000000
0.000000 0.000000 0.000000
-27193.467347 3.417291 0.000000
3.417291 -27187.267630 0.000000
0.000000 0.000000 0.000000
-28608.554180 2.728669 0.000000
2.728669 -28603.161694 0.000000
0.000000 0.000000 0.000000
-30013.587102 1.952613 0.000000
1.952613 -30008.946031 0.000000
0.000000 0.000000 0.000000
-31420.409407 1.014470 0.000000
1.014470 -31416.541413 0.000000
0.000000 0.000000 0.000000
-32846.511078 -0.189390 0.000000
-0.189390 -32843.184040 0.000000
0.000000 0.000000 0.000000
-34132.018093 -1.627041 0.000000
-1.627041 -34128.606175 0.000000
0.000000 0.000000 0.000000
-19060.245559 8.188931 0.000000
8.188931 -19056.862806 0.000000
0.000000 0.000000 0.000000
-19317.196099 7.541463 0.000000
7.541463 -19312.656792 0.000000
0.000000 0.000000 0.000000
-19524.050455 6.980032 0.000000
6.980032 -19518.218104 0.000000
0.000000 0.000000 0.000000
-19500.346578 6.699526 0.000000
6.699526 -19493.076373 0.000000
0.000000 0.000000 0.000000
-19508.702556 6.554288 0.000000
6.554288 -19500.186429 0.000000
0.000000 0.000000 0.000000
-19417.080211 6.592832 0.000000
6.592832 -19407.673229 0.000000
0.000000 0.000000 0.000000
-19369.605579 6.649867 0.000000
6.649867 -19359.716740 0.000000
0.000000 0.000000 0.000000
-19525.465694 6.603407 0.000000
6.603407 -19515.402818 0.000000
0.000000 0.000000 0.000000
-19722.226722 6.543242 0.000000
6.543242 -19712.087789 0.000000
0.000000 0.000000 0.000000
-20070.733024 6.409586 0.000000
6.409586 -20060.608689 0.000000
0.000000 0.000000 0.000000
-20541.162841 6.229350 0.000000
6.229350 -20531.169645 0.000000
0.000000 0.000000 0.000000
-21140.638298 5.999193 0.000000
5.999193 -21130.806804 0.000000
0.000000 0.000000 0.000000
-21793.112380 5.779428 0.000000
5.779428 -21783.471428 0.000000
0.000000 0.000000 0.000000
-22608.964674 5.499209 0.000000
5.499209 -22599.586679 0.000000
0.000000 0.000000 0.000000
-23494.310632 5.219706 0.000000
5.219706 -23485.291254 0.000000
0.000000 0.000000 0.000000
-24509.085464 4.896330 0.000000
4.896330 -24500.511855 0.000000
0.000000 0.000000 0.000000
-25640.093387 4.535011 0.000000
4.535011 -25632.034945 0.000000
0.000000 0.000000 0.000000
-26873.709940 4.144703 0.000000
4.144703 -26866.226935 0.000000
0.000000 0.000000 0.000000
-28264.354087 3.685090 0.000000
3.685090 -28257.624770 0.000000
0.000000 0.000000 0.000000
-29804.628783 3.098112 0.000000
3.098112 -29798.739586 0.000000
0.000000 0.000000 0.000000
-31403.360766 2.388314 0.000000
2.388314 -31398.429414 0.000000
0.000000 0.000000 0.000000
-33084.244818 1.474469 0.000000
1.474469 -33080.278070 0.000000
0.000000 0.000000 0.000000
-34857.081686 0.261501 0.000000
0.261501 -34853.848337 0.000000
0.000000 0.000000 0.000000
-36541.913064 -1.321150 0.000000
-1.321150 -36538.788449 0.000000
0.000000 0.000000 0.000000
-19995.750642 7.705751 0.000000
7.705751 -19992.242559 0.000000
0.000000 0.000000 0.000000
-20207.109973 7.007758 0.000000
7.007758 -20202.179976 0.000000
0.000000 0.000000 0.000000
-20173.362534 6.597223 0.000000
6.597223 -20166.685823 0.000000
0.000000 0.000000 0.000000
-20032.970783 6.463158 0.000000
6.463158 -20024.722559 0.000000
0.000000 0.000000 0.000000
-19759.606075 6.560721 0.000000
6.560721 -19750.256124 0.000000
0.000000 0.000000 0.000000
-19599.377629 6.643582 0.000000
6.643582 -19589.488200 0.000000
0.000000 0.000000 0.000000
-19568.473289 6.659222 0.000000
6.659222 -19558.265158 0.000000
0.000000 0.000000 0.000000
-19694.960063 6.613035 0.000000
6.613035 -19684.640251 0.000000
0.000000 0.000000 0.000000
-20006.403872 6.462384 0.000000
6.462384 -19996.000445 0.000000
0.000000 0.000000 0.000000
-20393.454368 6.320030 0.000000
6.320030 -20383.064493 0.000000
0.000000 0.000000 0.000000
-20918.034048 6.138821 0.000000
6.138821 -20907.680261 0.000000
0.000000 0.000000 0.000000
-21548.486348 5.945116 0.000000
5.945116 -21538.184729 0.000000
0.000000 0.000000 0.000000
-22327.610452 5.700405 0.000000
5.700405 -22317.459553 0.000000
0.000000 0.000000 0.000000
-23163.159605 5.478013 0.000000
5.478013 -23153.212359 0.000000
0.000000 0.000000 0.000000
-24085.602893 5.267253 0.000000
5.267253 -24075.915089 0.000000
0.000000 0.000000 0.000000
-25247.494649 4.964848 0.000000
4.964848 -25238.195060 0.000000
0.000000 0.000000 0.000000
-26479.455771 4.669851 0.000000
4.669851 -26470.610693 0.000000
0.000000 0.000000 0.000000
-27748.150141 4.390921 0.000000
4.390921 -27739.847484 0.000000
0.000000 0.000000 0.000000
-29368.656470 3.937808 0.000000
3.937808 -29361.126070 0.000000
0.000000 0.000000 0.000000
-31026.688488 3.494168 0.000000
3.494168 -31020.048638 0.000000
0.000000 0.000000 0.000000
-32869.124405 2.907700 0.000000
2.907700 -32863.578835 0.000000
0.000000 0.000000 0.000000
-34956.378546 2.053086 0.000000
2.053086 -34951.910962 0.000000
0.000000 0.000000 0.000000
-37250.756951 0.822225 0.000000
0.822225 -37247.348193 0.000000
0.000000 0.000000 0.000000
-39457.965319 -0.890118 0.000000
-0.890118 -39455.137755 0.000000
0.000000 0.000000 0.000000
-20988.643673 7.080477 0.000000
7.080477 -20984.929933 0.000000
0.000000 0.000000 0.000000
-21012.845918 6.424687 0.000000
6.424687 -21007.091173 0.000000
0.000000 0.000000 0.000000
-20642.782800 6.296756 0.000000
6.296756 -20634.991994 0.000000
0.000000 0.000000 0.000000
-20187.404435 6.432006 0.000000
6.432006 -20178.308853 0.000000
0.000000 0.000000 0.000000
-19797.170730 6.599624 0.000000
6.599624 -19787.421383 0.000000
0.000000 0.000000 0.000000
-19643.813527 6.619716 0.000000
6.619716 -19633.667877 0.000000
0.000000 0.000000 0.000000
-19676.290926 6.570444 0.000000
6.570444 -19665.927700 0.000000
0.000000 0.000000 0.000000
-19927.321873 6.416702 0.000000
6.416702 -19916.778986 0.000000
0.000000 0.000000 0.000000
-20197.043831 6.310815 0.000000
6.310815 -20186.337174 0.000000
0.000000 0.000000 0.000000
-20682.810957 6.131261 0.000000
6.131261 -20672.004085 0.000000
0.000000 0.000000 0.000000
-21305.128850 5.938279 0.000000
5.938279 -21294.236533 0.000000
0.000000 0.000000 0.000000
-21973.204302 5.783278 0.000000
5.783278 -21962.306100 0.000000
0.000000 0.000000 0.000000
-22779.382804 5.595537 0.000000
5.595537 -22768.533758 0.000000
0.000000 0.000000 0.000000
-23699.731136 5.399268 0.000000
5.399268 -23688.987661 0.000000
0.000000 0.000000 0.000000
-24745.808717 5.207837 0.000000
5.207837 -24735.244666 0.000000
0.000000 0.000000 0.000000
-25948.175113 4.998890 0.000000
4.998890 -25937.893108 0.000000
0.000000 0.000000 0.000000
-27273.816332 4.779639 0.000000
4.779639 -27263.929906 0.000000
0.000000 0.000000 0.000000
-28707.876417 4.553252 0.000000
4.553252 -28698.513340 0.000000
0.000000 0.000000 0.000000
-30448.220767 4.226193 0.000000
4.226193 -30439.540184 0.000000
0.000000 0.000000 0.000000
-32293.646902 3.923003 0.000000
3.923003 -32285.835491 0.000000
0.000000 0.000000 0.000000
-34568.937939 3.424801 0.000000
3.424801 -34562.217612 0.000000
0.000000 0.000000 0.000000
-37051.304172 2.743998 0.000000
2.743998 -37045.847475 0.000000
0.000000 0.000000 0.000000
-39909.385664 1.616361 0.000000
1.616361 -39905.387144 0.000000
0.000000 0.000000 0.000000
-43021.913376 -0.225700 0.000000
-0.225700 -43019.204311 0.000000
0.000000 0.000000 0.000000
-22064.943117 6.222369 0.000000
6.222369 -22060.616502 0.000000
0.000000 0.000000 0.000000
-21402.769654 6.011288 0.000000
6.011288 -21395.778082 0.000000
0.000000 0.000000 0.000000
-20639.370341 6.206234 0.000000
6.206234 -20630.765436 0.000000
0.000000 0.000000 0.000000
-19953.286660 6.460818 0.000000
6.460818 -19943.884786 0.000000
0.000000 0.000000 0.000000
-19710.282748 6.445036 0.000000
6.445036 -19700.467228 0.000000
0.000000 0.000000 0.000000
-19591.744282 6.396390 0.000000
6.396390 -19581.507290 0.000000
0.000000 0.000000 0.000000
-19767.668328 6.246949 0.000000
6.246949 -19757.120156 0.000000
0.000000 0.000000 0.000000
-20006.813199 6.129248 0.000000
6.129248 -19995.950078 0.000000
0.000000 0.000000 0.000000
-20433.349009 5.960198 0.000000
5.960198 -20422.221128 0.000000
0.000000 0.000000 0.000000
-20990.143619 5.784828 0.000000
5.784828 -20978.729925 0.000000
0.000000 0.000000 0.000000
-21565.141330 5.693466 0.000000
5.693466 -21553.554595 0.000000
0.000000 0.000000 0.000000
-22387.147132 5.501475 0.000000
5.501475 -22375.489726 0.000000
0.000000 0.000000 0.000000
-23245.299271 5.362883 0.000000
5.362883 -23233.582084 0.000000
0.000000 0.000000 0.000000
-24176.317379 5.252787 0.000000
5.252787 -24164.531353 0.000000
0.000000 0.000000 0.000000
-25370.141868 5.064524 0.000000
5.064524 -25358.470656 0.000000
0.000000 0.000000 0.000000
-26627.888808 4.927655 0.000000
4.927655 -26616.412389 0.000000
0.000000 0.000000 0.000000
-27953.978397 4.842931 0.000000
4.842931 -27942.803554 0.000000
0.000000 0.000000 0.000000
-29708.346102 4.586951 0.000000
4.586951 -29697.534963 0.000000
0.000000 0.000000 0.000000
-31508.751396 4.472553 0.000000
4.472553 -31498.472840 0.000000
0.000000 0.000000 0.000000
-33676.046243 4.290620 0.000000
4.290620 -33666.452308 0.000000
0.000000 0.000000 0.000000
-36337.652503 3.979256 0.000000
3.979256 -36329.073176 0.000000
0.000000 0.000000 0.000000
-39391.140177 3.495684 0.000000
3.495684 -39384.013753 0.000000
0.000000 0.000000 0.000000
-42950.851623 2.642185 0.000000
2.642185 -42945.564629 0.000000
0.000000 0.000000 0.000000
-47475.830472 0.813689 0.000000
0.813689 -47472.621232 0.000000
0.000000 0.000000 0.000000
-22502.807400 5.624668 0.000000
5.624668 -22497.275116 0.000000
0.000000 0.000000 0.000000
-21132.956135 5.910209 0.000000
5.910209 -21125.227364 0.000000
0.000000 0.000000 0.000000
-20098.143598 6.184924 0.000000
6.184924 -20089.478433 0.000000
0.000000 0.000000 0.000000
-19663.161006 6.124881 0.000000
6.124881 -19653.968160 0.000000
0.000000 0.000000 0.000000
-19468.728732 6.002557 0.000000
6.002557 -19458.913813 0.000000
0.000000 0.000000 0.000000
-19516.576388 5.874771 0.000000
5.874771 -19506.156453 0.000000
0.000000 0.000000 0.000000
-19777.114959 5.739857 0.000000
5.739857 -19766.217274 0.000000
0.000000 0.000000 0.000000
-20100.701459 5.642361 0.000000
5.642361 -20089.329361 0.000000
0.000000 0.000000 0.000000
-20631.550674 5.476018 0.000000
5.476018 -20619.738395 0.000000
0.000000 0.000000 0.000000
-21166.607339 5.386125 0.000000
5.386125 -21154.437461 0.000000
0.000000 0.000000 0.000000
-21879.520054 5.267910 0.000000
5.267910 -21867.068261 0.000000
0.000000 0.000000 0.000000
-22690.789115 5.179243 0.000000
5.179243 -22678.124524 0.000000
0.000000 0.000000 0.000000
-23665.531390 5.042969 0.000000
5.042969 -23652.691175 0.000000
0.000000 0.000000 0.000000
-24675.048808 4.964681 0.000000
4.964681 -24662.055806 0.000000
0.000000 0.000000 0.000000
-25867.980585 4.872567 0.000000
4.872567 -25854.971786 0.000000
0.000000 0.000000 0.000000
-27205.490289 4.790398 0.000000
4.790398 -27192.592297 0.000000
0.000000 0.000000 0.000000
-28786.816741 4.685704 0.000000
4.685704 -28774.005942 0.000000
0.000000 0.000000 0.000000
-30533.818424 4.614051 0.000000
4.614051 -30521.124711 0.000000
0.000000 0.000000 0.000000
-32574.887583 4.529759 0.000000
4.529759 -32562.500899 0.000000
0.000000 0.000000 0.000000
-34980.758226 4.429001 0.000000
4.429001 -34968.800000 0.000000
0.000000 0.000000 0.000000
-37844.462919 4.376709 0.000000
4.376709 -37833.339611 0.000000
0.000000 0.000000 0.000000
-41700.662196 4.136436 0.000000
4.136436 -41690.773662 0.000000
0.000000 0.000000 0.000000
-46644.017199 3.700778 0.000000
3.700778 -46635.854853 0.000000
0.000000 0.000000 0.000000
-53491.829355 2.402820 0.000000
2.402820 -53486.163604 0.000000
0.000000 0.000000 0.000000
