# vtk DataFile Version 2.0
cook_membrance_rkgsi_mix
ASCII
DATASET POLYDATA
POINTS 121 float
0.000000 0.000000 0.000000
48.000000 44.000000 0.000000
48.000000 60.000000 0.000000
0.000000 44.000000 0.000000
4.800000 4.400000 0.000000
9.600000 8.800000 0.000000
14.400000 13.200000 0.000000
19.200000 17.600000 0.000000
24.000000 22.000000 0.000000
28.800000 26.400000 0.000000
33.600000 30.800000 0.000000
38.400000 35.200000 0.000000
43.200000 39.600000 0.000000
48.000000 45.600000 0.000000
48.000000 47.200000 0.000000
48.000000 48.800000 0.000000
48.000000 50.400000 0.000000
48.000000 52.000000 0.000000
48.000000 53.600000 0.000000
48.000000 55.200000 0.000000
48.000000 56.800000 0.000000
48.000000 58.400000 0.000000
43.200000 58.400000 0.000000
38.400000 56.800000 0.000000
33.600000 55.200000 0.000000
28.800000 53.600000 0.000000
24.000000 52.000000 0.000000
19.200000 50.400000 0.000000
14.400000 48.800000 0.000000
9.600000 47.200000 0.000000
4.800000 45.600000 0.000000
0.000000 39.600000 0.000000
0.000000 35.200000 0.000000
0.000000 30.800000 0.000000
0.000000 26.400000 0.000000
0.000000 22.000000 0.000000
0.000000 17.600000 0.000000
0.000000 13.200000 0.000000
0.000000 8.800000 0.000000
0.000000 4.400000 0.000000
4.800000 8.520000 0.000000
4.800000 12.640000 0.000000
4.800000 16.760000 0.000000
4.800000 20.880000 0.000000
4.800000 25.000000 0.000000
4.800000 29.120000 0.000000
4.800000 33.240000 0.000000
4.800000 37.360000 0.000000
4.800000 41.480000 0.000000
9.600000 12.640000 0.000000
9.600000 16.480000 0.000000
9.600000 20.320000 0.000000
9.600000 24.160000 0.000000
9.600000 28.000000 0.000000
9.600000 31.840000 0.000000
9.600000 35.680000 0.000000
9.600000 39.520000 0.000000
9.600000 43.360000 0.000000
14.400000 16.760000 0.000000
14.400000 20.320000 0.000000
14.400000 23.880000 0.000000
14.400000 27.440000 0.000000
14.400000 31.000000 0.000000
14.400000 34.560000 0.000000
14.400000 38.120000 0.000000
14.400000 41.680000 0.000000
14.400000 45.240000 0.000000
19.200000 20.880000 0.000000
19.200000 24.160000 0.000000
19.200000 27.440000 0.000000
19.200000 30.720000 0.000000
19.200000 34.000000 0.000000
19.200000 37.280000 0.000000
19.200000 40.560000 0.000000
19.200000 43.840000 0.000000
19.200000 47.120000 0.000000
24.000000 25.000000 0.000000
24.000000 28.000000 0.000000
24.000000 31.000000 0.000000
24.000000 34.000000 0.000000
24.000000 37.000000 0.000000
24.000000 40.000000 0.000000
24.000000 43.000000 0.000000
24.000000 46.000000 0.000000
24.000000 49.000000 0.000000
28.800000 29.120000 0.000000
28.800000 31.840000 0.000000
28.800000 34.560000 0.000000
28.800000 37.280000 0.000000
28.800000 40.000000 0.000000
28.800000 42.720000 0.000000
28.800000 45.440000 0.000000
28.800000 48.160000 0.000000
28.800000 50.880000 0.000000
33.600000 33.240000 0.000000
33.600000 35.680000 0.000000
33.600000 38.120000 0.000000
33.600000 40.560000 0.000000
33.600000 43.000000 0.000000
33.600000 45.440000 0.000000
33.600000 47.880000 0.000000
33.600000 50.320000 0.000000
33.600000 52.760000 0.000000
38.400000 37.360000 0.000000
38.400000 39.520000 0.000000
38.400000 41.680000 0.000000
38.400000 43.840000 0.000000
38.400000 46.000000 0.000000
38.400000 48.160000 0.000000
38.400000 50.320000 0.000000
38.400000 52.480000 0.000000
38.400000 54.640000 0.000000
43.200000 41.480000 0.000000
43.200000 43.360000 0.000000
43.200000 45.240000 0.000000
43.200000 47.120000 0.000000
43.200000 49.000000 0.000000
43.200000 50.880000 0.000000
43.200000 52.760000 0.000000
43.200000 54.640000 0.000000
43.200000 56.520000 0.000000
POLYGONS 200 800
3 0 4 39
3 39 4 40
3 39 40 38
3 38 40 41
3 38 41 37
3 37 41 42
3 37 42 36
3 36 42 43
3 36 43 35
3 35 43 44
3 35 44 34
3 34 44 45
3 34 45 33
3 33 45 46
3 33 46 32
3 32 46 47
3 32 47 31
3 31 47 48
3 31 48 3
3 3 48 30
3 4 5 40
3 40 5 49
3 40 49 41
3 41 49 50
3 41 50 42
3 42 50 51
3 42 51 43
3 43 51 52
3 43 52 44
3 44 52 53
3 44 53 45
3 45 53 54
3 45 54 46
3 46 54 55
3 46 55 47
3 47 55 56
3 47 56 48
3 48 56 57
3 48 57 30
3 30 57 29
3 5 6 49
3 49 6 58
3 49 58 50
3 50 58 59
3 50 59 51
3 51 59 60
3 51 60 52
3 52 60 61
3 52 61 53
3 53 61 62
3 53 62 54
3 54 62 63
3 54 63 55
3 55 63 64
3 55 64 56
3 56 64 65
3 56 65 57
3 57 65 66
3 57 66 29
3 29 66 28
3 6 7 58
3 58 7 67
3 58 67 59
3 59 67 68
3 59 68 60
3 60 68 69
3 60 69 61
3 61 69 70
3 61 70 62
3 62 70 71
3 62 71 63
3 63 71 72
3 63 72 64
3 64 72 73
3 64 73 65
3 65 73 74
3 65 74 66
3 66 74 75
3 66 75 28
3 28 75 27
3 7 8 67
3 67 8 76
3 67 76 68
3 68 76 77
3 68 77 69
3 69 77 78
3 69 78 70
3 70 78 79
3 70 79 71
3 71 79 80
3 71 80 72
3 72 80 81
3 72 81 73
3 73 81 82
3 73 82 74
3 74 82 83
3 74 83 75
3 75 83 84
3 75 84 27
3 27 84 26
3 8 9 76
3 76 9 85
3 76 85 77
3 77 85 86
3 77 86 78
3 78 86 87
3 78 87 79
3 79 87 88
3 79 88 80
3 80 88 89
3 80 89 81
3 81 89 90
3 81 90 82
3 82 90 91
3 82 91 83
3 83 91 92
3 83 92 84
3 84 92 93
3 84 93 26
3 26 93 25
3 9 10 85
3 85 10 94
3 85 94 86
3 86 94 95
3 86 95 87
3 87 95 96
3 87 96 88
3 88 96 97
3 88 97 89
3 89 97 98
3 89 98 90
3 90 98 99
3 90 99 91
3 91 99 100
3 91 100 92
3 92 100 101
3 92 101 93
3 93 101 102
3 93 102 25
3 25 102 24
3 10 11 94
3 94 11 103
3 94 103 95
3 95 103 104
3 95 104 96
3 96 104 105
3 96 105 97
3 97 105 106
3 97 106 98
3 98 106 107
3 98 107 99
3 99 107 108
3 99 108 100
3 100 108 109
3 100 109 101
3 101 109 110
3 101 110 102
3 102 110 111
3 102 111 24
3 24 111 23
3 11 12 103
3 103 12 112
3 103 112 104
3 104 112 113
3 104 113 105
3 105 113 114
3 105 114 106
3 106 114 115
3 106 115 107
3 107 115 116
3 107 116 108
3 108 116 117
3 108 117 109
3 109 117 118
3 109 118 110
3 110 118 119
3 110 119 111
3 111 119 120
3 111 120 23
3 23 120 22
3 12 1 112
3 112 1 13
3 112 13 113
3 113 13 14
3 113 14 114
3 114 14 15
3 114 15 115
3 115 15 16
3 115 16 116
3 116 16 17
3 116 17 117
3 117 17 18
3 117 18 118
3 118 18 19
3 118 19 119
3 119 19 20
3 119 20 120
3 120 20 21
3 120 21 22
3 22 21 2
POINT_DATA 121
VECTORS U float
-0.000000 0.000000 0.000000
-1.750751 6.484449 0.000000
-5.309094 6.505687 0.000000
-0.000000 0.000000 0.000000
0.035869 0.362632 0.000000
0.103001 0.534333 0.000000
0.177882 0.816688 0.000000
0.229353 1.162487 0.000000
0.293293 1.636696 0.000000
0.263938 2.287051 0.000000
0.102349 3.104480 0.000000
-0.259834 4.118383 0.000000
-0.860905 5.266344 0.000000
-2.053438 6.488231 0.000000
-2.346046 6.507454 0.000000
-2.644595 6.532898 0.000000
-2.960187 6.553979 0.000000
-3.293609 6.570003 0.000000
-3.647153 6.578043 0.000000
-4.023428 6.577860 0.000000
-4.422242 6.571886 0.000000
-4.849125 6.552358 0.000000
-4.578513 5.156490 0.000000
-3.895907 4.071404 0.000000
-3.273562 3.166746 0.000000
-2.699700 2.392230 0.000000
-2.145909 1.762960 0.000000
-1.631395 1.262522 0.000000
-1.153935 0.899359 0.000000
-0.762416 0.603483 0.000000
-0.231592 0.330713 0.000000
0.000000 0.000000 0.000000
0.000000 -0.000000 0.000000
0.000000 -0.000000 0.000000
0.000000 -0.000000 0.000000
0.000000 -0.000000 0.000000
0.000000 -0.000000 0.000000
0.000000 -0.000000 0.000000
0.000000 0.000000 0.000000
-0.000000 0.000000 0.000000
0.034510 0.299253 0.000000
0.037203 0.238074 0.000000
0.033222 0.180951 0.000000
0.032059 0.122434 0.000000
0.031393 0.060906 0.000000
0.025438 0.013438 0.000000
0.006944 0.001478 0.000000
-0.033005 0.041471 0.000000
-0.101646 0.159718 0.000000
0.150125 0.493123 0.000000
0.129547 0.458366 0.000000
0.105643 0.397716 0.000000
0.084153 0.310682 0.000000
0.052224 0.268103 0.000000
-0.005350 0.260007 0.000000
-0.053344 0.260273 0.000000
-0.143667 0.235539 0.000000
-0.352919 0.408190 0.000000
0.195087 0.786232 0.000000
0.195246 0.730486 0.000000
0.166583 0.672522 0.000000
0.119727 0.612401 0.000000
0.054817 0.568995 0.000000
-0.034093 0.539649 0.000000
-0.186363 0.578821 0.000000
-0.430308 0.643155 0.000000
-0.753930 0.740856 0.000000
0.265484 1.141998 0.000000
0.249702 1.101259 0.000000
0.197453 1.054632 0.000000
0.105350 1.013851 0.000000
-0.027272 0.992937 0.000000
-0.214807 0.982609 0.000000
-0.456975 1.002657 0.000000
-0.773022 1.063667 0.000000
-1.163387 1.150945 0.000000
0.288790 1.637262 0.000000
0.230141 1.613489 0.000000
0.123471 1.582393 0.000000
-0.030454 1.551775 0.000000
-0.234419 1.539218 0.000000
-0.496034 1.545936 0.000000
-0.812776 1.570322 0.000000
-1.183534 1.615429 0.000000
-1.623568 1.680336 0.000000
0.201908 2.289677 0.000000
0.084176 2.277391 0.000000
-0.085970 2.260460 0.000000
-0.306515 2.245762 0.000000
-0.574954 2.242364 0.000000
-0.890742 2.254209 0.000000
-1.257519 2.275922 0.000000
-1.678597 2.306638 0.000000
-2.158445 2.344813 0.000000
-0.034391 3.109837 0.000000
-0.222983 3.103669 0.000000
-0.459169 3.097645 0.000000
-0.738348 3.095642 0.000000
-1.057252 3.100118 0.000000
-1.414842 3.107019 0.000000
-1.813831 3.116330 0.000000
-2.258207 3.126087 0.000000
-2.746226 3.140810 0.000000
-0.473998 4.108728 0.000000
-0.726364 4.099835 0.000000
-1.013775 4.093779 0.000000
-1.331140 4.090857 0.000000
-1.675539 4.091533 0.000000
-2.049765 4.092116 0.000000
-2.454383 4.090781 0.000000
-2.893793 4.085198 0.000000
-3.373136 4.074822 0.000000
-1.132010 5.253058 0.000000
-1.427520 5.247575 0.000000
-1.741093 5.246441 0.000000
-2.068203 5.248361 0.000000
-2.411947 5.250226 0.000000
-2.776754 5.251435 0.000000
-3.168233 5.247779 0.000000
-3.591374 5.233999 0.000000
-4.056095 5.205320 0.000000
TENSORS STRESS float
2019.447822 7.692954 0.000000
7.692954 2018.640944 0.000000
0.000000 0.000000 0.000000
-18899.015511 5.868593 0.000000
5.868593 -18893.065683 0.000000
0.000000 0.000000 0.000000
-38733.004602 2.030014 0.000000
2.030014 -38730.865177 0.000000
0.000000 0.000000 0.000000
-10302.676769 5.463492 0.000000
5.463492 -10298.542532 0.000000
0.000000 0.000000 0.000000
-2092.937753 5.436844 0.000000
5.436844 -2096.980153 0.000000
0.000000 0.000000 0.000000
-3829.223137 5.927100 0.000000
5.927100 -3831.400355 0.000000
0.000000 0.000000 0.000000
-1883.984765 6.610478 0.000000
6.610478 -1884.454779 0.000000
0.000000 0.000000 0.000000
-640.567423 8.224249 0.000000
8.224249 -639.804461 0.000000
0.000000 0.000000 0.000000
1999.434008 9.600387 0.000000
9.600387 2001.384664 0.000000
0.000000 0.000000 0.000000
-909.889532 10.803808 0.000000
10.803808 -907.604395 0.000000
0.000000 0.000000 0.000000
-1859.586223 11.230751 0.000000
11.230751 -1856.464901 0.000000
0.000000 0.000000 0.000000
-8747.354058 11.128746 0.000000
11.128746 -8745.160990 0.000000
0.000000 0.000000 0.000000
-14198.078724 9.563912 0.000000
9.563912 -14195.259098 0.000000
0.000000 0.000000 0.000000
-19345.790013 6.728462 0.000000
6.728462 -19335.407260 0.000000
0.000000 0.000000 0.000000
-18557.957703 7.143151 0.000000
7.143151 -18545.705708 0.000000
0.000000 0.000000 0.000000
-19217.945659 7.073243 0.000000
7.073243 -19205.387506 0.000000
0.000000 0.000000 0.000000
-21594.884870 6.630888 0.000000
6.630888 -21582.530749 0.000000
0.000000 0.000000 0.000000
-23935.639034 6.133185 0.000000
6.133185 -23923.550812 0.000000
0.000000 0.000000 0.000000
-26909.235956 5.427619 0.000000
5.427619 -26897.780214 0.000000
0.000000 0.000000 0.000000
-28877.229728 4.700564 0.000000
4.700564 -28866.244015 0.000000
0.000000 0.000000 0.000000
-30302.553170 4.015446 0.000000
4.015446 -30292.612831 0.000000
0.000000 0.000000 0.000000
-33382.520818 3.122373 0.000000
3.122373 -33375.269674 0.000000
0.000000 0.000000 0.000000
-33410.506584 -2.854514 0.000000
-2.854514 -33407.830575 0.000000
0.000000 0.000000 0.000000
-18431.709785 -3.795940 0.000000
-3.795940 -18422.834203 0.000000
0.000000 0.000000 0.000000
-13993.188438 -4.330175 0.000000
-4.330175 -13982.961858 0.000000
0.000000 0.000000 0.000000
-11225.952256 -5.652381 0.000000
-5.652381 -11215.250587 0.000000
0.000000 0.000000 0.000000
-7597.986097 -6.491243 0.000000
-6.491243 -7585.399007 0.000000
0.000000 0.000000 0.000000
-5774.919997 -6.540757 0.000000
-6.540757 -5760.350475 0.000000
0.000000 0.000000 0.000000
4846.335591 -5.959176 0.000000
-5.959176 4862.246274 0.000000
0.000000 0.000000 0.000000
-6990.482940 -7.450628 0.000000
-7.450628 -6975.043970 0.000000
0.000000 0.000000 0.000000
-16355.077092 0.041636 0.000000
0.041636 -16340.008746 0.000000
0.000000 0.000000 0.000000
-5692.372556 1.419793 0.000000
1.419793 -5690.211954 0.000000
0.000000 0.000000 0.000000
860.074154 -1.786819 0.000000
-1.786819 859.744704 0.000000
0.000000 0.000000 0.000000
3120.463746 -2.179090 0.000000
-2.179090 3119.295751 0.000000
0.000000 0.000000 0.000000
2293.838438 -0.903250 0.000000
-0.903250 2292.957252 0.000000
0.000000 0.000000 0.000000
1376.355827 0.491284 0.000000
0.491284 1375.809456 0.000000
0.000000 0.000000 0.000000
241.149526 1.917017 0.000000
1.917017 241.054460 0.000000
0.000000 0.000000 0.000000
-387.312310 3.643688 0.000000
3.643688 -387.155721 0.000000
0.000000 0.000000 0.000000
603.400042 5.254036 0.000000
5.254036 603.157966 0.000000
0.000000 0.000000 0.000000
1696.457756 6.565716 0.000000
6.565716 1695.778797 0.000000
0.000000 0.000000 0.000000
-1188.776383 4.538159 0.000000
4.538159 -1193.225260 0.000000
0.000000 0.000000 0.000000
1527.120389 4.014610 0.000000
4.014610 1521.875986 0.000000
0.000000 0.000000 0.000000
779.935814 3.781809 0.000000
3.781809 775.366228 0.000000
0.000000 0.000000 0.000000
-1856.944732 3.340543 0.000000
3.340543 -1861.192695 0.000000
0.000000 0.000000 0.000000
-1899.831739 2.535204 0.000000
2.535204 -1903.184254 0.000000
0.000000 0.000000 0.000000
-3019.358698 2.192030 0.000000
2.192030 -3021.359332 0.000000
0.000000 0.000000 0.000000
-7.072239 2.271618 0.000000
2.271618 -5.509568 0.000000
0.000000 0.000000 0.000000
2662.341550 0.822214 0.000000
0.822214 2666.241916 0.000000
0.000000 0.000000 0.000000
8111.701075 0.339039 0.000000
0.339039 8121.954371 0.000000
0.000000 0.000000 0.000000
3376.223466 4.934987 0.000000
4.934987 3371.841608 0.000000
0.000000 0.000000 0.000000
3292.816477 4.469023 0.000000
4.469023 3288.222105 0.000000
0.000000 0.000000 0.000000
-1542.562647 4.626730 0.000000
4.626730 -1548.990068 0.000000
0.000000 0.000000 0.000000
-1728.035178 4.667122 0.000000
4.667122 -1733.205162 0.000000
0.000000 0.000000 0.000000
763.888994 3.985650 0.000000
3.985650 761.572322 0.000000
0.000000 0.000000 0.000000
2410.999513 3.676500 0.000000
3.676500 2411.236578 0.000000
0.000000 0.000000 0.000000
-6708.666245 3.226195 0.000000
3.226195 -6709.434573 0.000000
0.000000 0.000000 0.000000
-2357.375811 1.670310 0.000000
1.670310 -2351.145165 0.000000
0.000000 0.000000 0.000000
5033.910683 -2.827003 0.000000
-2.827003 5051.392679 0.000000
0.000000 0.000000 0.000000
-1498.409789 6.192524 0.000000
6.192524 -1502.312796 0.000000
0.000000 0.000000 0.000000
953.658134 5.918857 0.000000
5.918857 948.365413 0.000000
0.000000 0.000000 0.000000
167.873873 5.701041 0.000000
5.701041 161.985204 0.000000
0.000000 0.000000 0.000000
987.642070 5.247526 0.000000
5.247526 982.993007 0.000000
0.000000 0.000000 0.000000
-796.664180 4.453756 0.000000
4.453756 -800.442593 0.000000
0.000000 0.000000 0.000000
127.176084 3.356372 0.000000
3.356372 127.619876 0.000000
0.000000 0.000000 0.000000
-1150.242512 1.839425 0.000000
1.839425 -1144.532550 0.000000
0.000000 0.000000 0.000000
-5162.347586 -0.525228 0.000000
-0.525228 -5153.515768 0.000000
0.000000 0.000000 0.000000
-2483.916435 -3.364457 0.000000
-3.364457 -2471.609704 0.000000
0.000000 0.000000 0.000000
-224.224535 7.910285 0.000000
7.910285 -227.640632 0.000000
0.000000 0.000000 0.000000
679.026339 7.258001 0.000000
7.258001 674.461661 0.000000
0.000000 0.000000 0.000000
-127.215621 6.624409 0.000000
6.624409 -131.797623 0.000000
0.000000 0.000000 0.000000
-484.255659 5.770805 0.000000
5.770805 -487.021877 0.000000
0.000000 0.000000 0.000000
-2629.316613 4.638822 0.000000
4.638822 -2629.793837 0.000000
0.000000 0.000000 0.000000
-4753.366377 2.816793 0.000000
2.816793 -4751.501693 0.000000
0.000000 0.000000 0.000000
-3073.363969 0.768128 0.000000
0.768128 -3067.999064 0.000000
0.000000 0.000000 0.000000
-2428.543651 -1.355038 0.000000
-1.355038 -2420.127228 0.000000
0.000000 0.000000 0.000000
-3869.576410 -3.577532 0.000000
-3.577532 -3858.396649 0.000000
0.000000 0.000000 0.000000
-397.578199 9.112982 0.000000
9.112982 -399.228239 0.000000
0.000000 0.000000 0.000000
-1560.829910 8.206787 0.000000
8.206787 -1563.243570 0.000000
0.000000 0.000000 0.000000
-3075.438683 7.143311 0.000000
7.143311 -3077.799691 0.000000
0.000000 0.000000 0.000000
-3751.875057 5.795009 0.000000
5.795009 -3752.941228 0.000000
0.000000 0.000000 0.000000
-3339.177577 4.361790 0.000000
4.361790 -3338.002083 0.000000
0.000000 0.000000 0.000000
-4599.611586 2.701983 0.000000
2.701983 -4596.192534 0.000000
0.000000 0.000000 0.000000
-5221.656608 0.967206 0.000000
0.967206 -5215.829166 0.000000
0.000000 0.000000 0.000000
-5663.913503 -1.077762 0.000000
-1.077762 -5655.758896 0.000000
0.000000 0.000000 0.000000
-6451.807655 -3.563453 0.000000
-3.563453 -6441.256057 0.000000
0.000000 0.000000 0.000000
-2129.252962 9.784285 0.000000
9.784285 -2129.189433 0.000000
0.000000 0.000000 0.000000
-3548.437452 8.579069 0.000000
8.579069 -3548.862109 0.000000
0.000000 0.000000 0.000000
-5169.949029 7.291329 0.000000
7.291329 -5169.922806 0.000000
0.000000 0.000000 0.000000
-6297.747275 5.799776 0.000000
5.799776 -6296.424042 0.000000
0.000000 0.000000 0.000000
-6431.955642 4.321885 0.000000
4.321885 -6428.859329 0.000000
0.000000 0.000000 0.000000
-7062.244068 2.783679 0.000000
2.783679 -7057.348279 0.000000
0.000000 0.000000 0.000000
-8796.796539 0.989920 0.000000
0.989920 -8790.198964 0.000000
0.000000 0.000000 0.000000
-10341.778990 -1.073097 0.000000
-1.073097 -10333.561670 0.000000
0.000000 0.000000 0.000000
-11629.322592 -3.397703 0.000000
-3.397703 -11619.685721 0.000000
0.000000 0.000000 0.000000
-5051.711623 9.963076 0.000000
9.963076 -5050.073136 0.000000
0.000000 0.000000 0.000000
-6736.285919 8.479687 0.000000
8.479687 -6734.572623 0.000000
0.000000 0.000000 0.000000
-7922.682085 7.069098 0.000000
7.069098 -7920.093228 0.000000
0.000000 0.000000 0.000000
-9206.927230 5.634430 0.000000
5.634430 -9203.046750 0.000000
0.000000 0.000000 0.000000
-10714.944032 4.185746 0.000000
4.185746 -10709.865960 0.000000
0.000000 0.000000 0.000000
-12137.051724 2.716479 0.000000
2.716479 -12131.085634 0.000000
0.000000 0.000000 0.000000
-13655.152884 1.040505 0.000000
1.040505 -13648.495908 0.000000
0.000000 0.000000 0.000000
-14552.275078 -0.725627 0.000000
-0.725627 -14544.903906 0.000000
0.000000 0.000000 0.000000
-14804.607688 -2.595411 0.000000
-2.595411 -14796.299948 0.000000
0.000000 0.000000 0.000000
-10418.015095 9.569707 0.000000
9.569707 -10415.246738 0.000000
0.000000 0.000000 0.000000
-11526.062413 8.060077 0.000000
8.060077 -11522.641923 0.000000
0.000000 0.000000 0.000000
-12477.755895 6.797554 0.000000
6.797554 -12473.399116 0.000000
0.000000 0.000000 0.000000
-13665.777309 5.712425 0.000000
5.712425 -13660.486899 0.000000
0.000000 0.000000 0.000000
-14780.420270 4.641219 0.000000
4.641219 -14774.323540 0.000000
0.000000 0.000000 0.000000
-15964.518454 3.467676 0.000000
3.467676 -15958.128212 0.000000
0.000000 0.000000 0.000000
-16982.570705 2.186042 0.000000
2.186042 -16976.279920 0.000000
0.000000 0.000000 0.000000
-18185.883166 0.698716 0.000000
0.698716 -18179.846744 0.000000
0.000000 0.000000 0.000000
-19216.358696 -1.175729 0.000000
-1.175729 -19210.211887 0.000000
0.000000 0.000000 0.000000
-15449.666256 8.096607 0.000000
8.096607 -15445.046215 0.000000
0.000000 0.000000 0.000000
-16905.282275 7.071842 0.000000
7.071842 -16899.022458 0.000000
0.000000 0.000000 0.000000
-18035.912804 6.475456 0.000000
6.475456 -18028.527963 0.000000
0.000000 0.000000 0.000000
-18789.363964 6.016441 0.000000
6.016441 -18781.512869 0.000000
0.000000 0.000000 0.000000
-19325.655320 5.436336 0.000000
5.436336 -19317.596168 0.000000
0.000000 0.000000 0.000000
-20330.090926 4.617539 0.000000
4.617539 -20322.002477 0.000000
0.000000 0.000000 0.000000
-22466.109448 3.549966 0.000000
3.549966 -22458.462962 0.000000
0.000000 0.000000 0.000000
-25626.938741 2.138220 0.000000
2.138220 -25620.211968 0.000000
0.000000 0.000000 0.000000
-29223.559512 0.185458 0.000000
0.185458 -29218.243579 0.000000
0.000000 0.000000 0.000000
